#   Hz   S  RI   R   50
!
0.000000e+00 -9.348865e-01 0.000000e+00
1.000000e+08 -9.347925e-01 1.255734e-02
2.000000e+08 -9.345103e-01 2.511083e-02
3.000000e+08 -9.340392e-01 3.765638e-02
4.000000e+08 -9.333784e-01 5.018952e-02
5.000000e+08 -9.325267e-01 6.270519e-02
6.000000e+08 -9.314832e-01 7.519765e-02
7.000000e+08 -9.302471e-01 8.766040e-02
8.000000e+08 -9.288182e-01 1.000862e-01
9.000000e+08 -9.271972e-01 1.124672e-01
1.000000e+09 -9.253859e-01 1.247950e-01
1.100000e+09 -9.233872e-01 1.370611e-01
1.200000e+09 -9.212057e-01 1.492570e-01
1.300000e+09 -9.188471e-01 1.613748e-01
1.400000e+09 -9.163188e-01 1.734077e-01
1.500000e+09 -9.136291e-01 1.853499e-01
1.600000e+09 -9.107874e-01 1.971974e-01
1.700000e+09 -9.078033e-01 2.089482e-01
1.800000e+09 -9.046861e-01 2.206022e-01
1.900000e+09 -9.014446e-01 2.321611e-01
2.000000e+09 -8.980865e-01 2.436286e-01
2.100000e+09 -8.946174e-01 2.550093e-01
2.200000e+09 -8.910414e-01 2.663089e-01
2.300000e+09 -8.873601e-01 2.775331e-01
2.400000e+09 -8.835732e-01 2.886870e-01
2.500000e+09 -8.796785e-01 2.997749e-01
2.600000e+09 -8.756726e-01 3.107992e-01
2.700000e+09 -8.715510e-01 3.217606e-01
2.800000e+09 -8.673091e-01 3.326576e-01
2.900000e+09 -8.629430e-01 3.434867e-01
3.000000e+09 -8.584495e-01 3.542425e-01
3.100000e+09 -8.538274e-01 3.649183e-01
3.200000e+09 -8.490773e-01 3.755068e-01
3.300000e+09 -8.442021e-01 3.860002e-01
3.400000e+09 -8.392068e-01 3.963918e-01
3.500000e+09 -8.340981e-01 4.066758e-01
3.600000e+09 -8.288843e-01 4.168483e-01
3.700000e+09 -8.235743e-01 4.269077e-01
3.800000e+09 -8.181769e-01 4.368546e-01
3.900000e+09 -8.127003e-01 4.466918e-01
4.000000e+09 -8.071513e-01 4.564241e-01
4.100000e+09 -8.015348e-01 4.660576e-01
4.200000e+09 -7.958533e-01 4.755990e-01
4.300000e+09 -7.901070e-01 4.850550e-01
4.400000e+09 -7.842939e-01 4.944316e-01
4.500000e+09 -7.784101e-01 5.037330e-01
4.600000e+09 -7.724507e-01 5.129616e-01
4.700000e+09 -7.664098e-01 5.221177e-01
4.800000e+09 -7.602820e-01 5.311989e-01
4.900000e+09 -7.540628e-01 5.402009e-01
5.000000e+09 -7.477491e-01 5.491176e-01
5.100000e+09 -7.413400e-01 5.579416e-01
5.200000e+09 -7.348370e-01 5.666652e-01
5.300000e+09 -7.282437e-01 5.752810e-01
5.400000e+09 -7.215662e-01 5.837827e-01
5.500000e+09 -7.148118e-01 5.921655e-01
5.600000e+09 -7.079894e-01 6.004269e-01
5.700000e+09 -7.011079e-01 6.085667e-01
5.800000e+09 -6.941760e-01 6.165871e-01
5.900000e+09 -6.872010e-01 6.244925e-01
6.000000e+09 -6.801888e-01 6.322888e-01
6.100000e+09 -6.731428e-01 6.399828e-01
6.200000e+09 -6.660643e-01 6.475818e-01
6.300000e+09 -6.589521e-01 6.550924e-01
6.400000e+09 -6.518032e-01 6.625201e-01
6.500000e+09 -6.446129e-01 6.698686e-01
6.600000e+09 -6.373760e-01 6.771394e-01
6.700000e+09 -6.300867e-01 6.843320e-01
6.800000e+09 -6.227403e-01 6.914433e-01
6.900000e+09 -6.153329e-01 6.984687e-01
7.000000e+09 -6.078628e-01 7.054021e-01
7.100000e+09 -6.003302e-01 7.122367e-01
7.200000e+09 -5.927377e-01 7.189657e-01
7.300000e+09 -5.850897e-01 7.255833e-01
7.400000e+09 -5.773927e-01 7.320846e-01
7.500000e+09 -5.696543e-01 7.384669e-01
7.600000e+09 -5.618826e-01 7.447295e-01
7.700000e+09 -5.540857e-01 7.508741e-01
7.800000e+09 -5.462709e-01 7.569041e-01
7.900000e+09 -5.384439e-01 7.628249e-01
8.000000e+09 -5.306088e-01 7.686430e-01
8.100000e+09 -5.227674e-01 7.743652e-01
8.200000e+09 -5.149193e-01 7.799983e-01
8.300000e+09 -5.070624e-01 7.855481e-01
8.400000e+09 -4.991928e-01 7.910190e-01
8.500000e+09 -4.913057e-01 7.964137e-01
8.600000e+09 -4.833960e-01 8.017327e-01
8.700000e+09 -4.754587e-01 8.069745e-01
8.800000e+09 -4.674899e-01 8.121359e-01
8.900000e+09 -4.594870e-01 8.172121e-01
9.000000e+09 -4.514494e-01 8.221977e-01
9.100000e+09 -4.433784e-01 8.270867e-01
9.200000e+09 -4.352771e-01 8.318740e-01
9.300000e+09 -4.271505e-01 8.365550e-01
9.400000e+09 -4.190049e-01 8.411269e-01
9.500000e+09 -4.108471e-01 8.455886e-01
9.600000e+09 -4.026844e-01 8.499410e-01
9.700000e+09 -3.945233e-01 8.541870e-01
9.800000e+09 -3.863693e-01 8.583308e-01
9.900000e+09 -3.782266e-01 8.623782e-01
1.000000e+10 -3.700973e-01 8.663355e-01
1.010000e+10 -3.619818e-01 8.702090e-01
1.020000e+10 -3.538785e-01 8.740044e-01
1.030000e+10 -3.457845e-01 8.777266e-01
1.040000e+10 -3.376957e-01 8.813787e-01
1.050000e+10 -3.296073e-01 8.849622e-01
1.060000e+10 -3.215148e-01 8.884768e-01
1.070000e+10 -3.134140e-01 8.919204e-01
1.080000e+10 -3.053020e-01 8.952897e-01
1.090000e+10 -2.971774e-01 8.985802e-01
1.100000e+10 -2.890403e-01 9.017870e-01
1.110000e+10 -2.808927e-01 9.049054e-01
1.120000e+10 -2.727383e-01 9.079314e-01
1.130000e+10 -2.645818e-01 9.108621e-01
1.140000e+10 -2.564290e-01 9.136959e-01
1.150000e+10 -2.482861e-01 9.164333e-01
1.160000e+10 -2.401587e-01 9.190761e-01
1.170000e+10 -2.320522e-01 9.216279e-01
1.180000e+10 -2.239704e-01 9.240934e-01
1.190000e+10 -2.159158e-01 9.264782e-01
1.200000e+10 -2.078892e-01 9.287879e-01
1.210000e+10 -1.998897e-01 9.310281e-01
1.220000e+10 -1.919151e-01 9.332036e-01
1.230000e+10 -1.839618e-01 9.353179e-01
1.240000e+10 -1.760258e-01 9.373731e-01
1.250000e+10 -1.681026e-01 9.393698e-01
1.260000e+10 -1.601884e-01 9.413069e-01
1.270000e+10 -1.522797e-01 9.431819e-01
1.280000e+10 -1.443745e-01 9.449915e-01
1.290000e+10 -1.364724e-01 9.467315e-01
1.300000e+10 -1.285740e-01 9.483978e-01
1.310000e+10 -1.206819e-01 9.499866e-01
1.320000e+10 -1.127998e-01 9.514950e-01
1.330000e+10 -1.049322e-01 9.529211e-01
1.340000e+10 -9.708432e-02 9.542648e-01
1.350000e+10 -8.926134e-02 9.555272e-01
1.360000e+10 -8.146796e-02 9.567110e-01
1.370000e+10 -7.370801e-02 9.578199e-01
1.380000e+10 -6.598410e-02 9.588589e-01
1.390000e+10 -5.829742e-02 9.598330e-01
1.400000e+10 -5.064768e-02 9.607474e-01
1.410000e+10 -4.303317e-02 9.616068e-01
1.420000e+10 -3.545106e-02 9.624149e-01
1.430000e+10 -2.789769e-02 9.631743e-01
1.440000e+10 -2.036902e-02 9.638862e-01
1.450000e+10 -1.286109e-02 9.645502e-01
1.460000e+10 -5.370467e-03 9.651648e-01
1.470000e+10 2.105366e-03 9.657273e-01
1.480000e+10 9.567738e-03 9.662344e-01
1.490000e+10 1.701662e-02 9.666822e-01
1.500000e+10 2.445059e-02 9.670673e-01
1.510000e+10 3.186700e-02 9.673866e-01
1.520000e+10 3.926217e-02 9.676382e-01
1.530000e+10 4.663180e-02 9.678211e-01
1.540000e+10 5.397135e-02 9.679359e-01
1.550000e+10 6.127647e-02 9.679844e-01
1.560000e+10 6.854346e-02 9.679697e-01
1.570000e+10 7.576958e-02 9.678957e-01
1.580000e+10 8.295332e-02 9.677671e-01
1.590000e+10 9.009449e-02 9.675887e-01
1.600000e+10 9.719422e-02 9.673649e-01
1.610000e+10 1.042548e-01 9.670995e-01
1.620000e+10 1.112795e-01 9.667955e-01
1.630000e+10 1.182719e-01 9.664546e-01
1.640000e+10 1.252361e-01 9.660769e-01
1.650000e+10 1.321754e-01 9.656617e-01
1.660000e+10 1.390928e-01 9.652069e-01
1.670000e+10 1.459902e-01 9.647096e-01
1.680000e+10 1.528683e-01 9.641666e-01
1.690000e+10 1.597266e-01 9.635742e-01
1.700000e+10 1.665631e-01 9.629296e-01
1.710000e+10 1.733752e-01 9.622304e-01
1.720000e+10 1.801591e-01 9.614751e-01
1.730000e+10 1.869108e-01 9.606637e-01
1.740000e+10 1.936264e-01 9.597973e-01
1.750000e+10 2.003021e-01 9.588781e-01
1.760000e+10 2.069350e-01 9.579095e-01
1.770000e+10 2.135233e-01 9.568954e-01
1.780000e+10 2.200664e-01 9.558404e-01
1.790000e+10 2.265649e-01 9.547488e-01
1.800000e+10 2.330204e-01 9.536243e-01
1.810000e+10 2.394359e-01 9.524703e-01
1.820000e+10 2.458146e-01 9.512888e-01
1.830000e+10 2.521603e-01 9.500807e-01
1.840000e+10 2.584767e-01 9.488456e-01
1.850000e+10 2.647670e-01 9.475821e-01
1.860000e+10 2.710335e-01 9.462878e-01
1.870000e+10 2.772777e-01 9.449596e-01
1.880000e+10 2.834996e-01 9.435944e-01
1.890000e+10 2.896983e-01 9.421888e-01
1.900000e+10 2.958716e-01 9.407403e-01
1.910000e+10 3.020164e-01 9.392471e-01
1.920000e+10 3.081293e-01 9.377083e-01
1.930000e+10 3.142064e-01 9.361243e-01
1.940000e+10 3.202442e-01 9.344969e-01
1.950000e+10 3.262395e-01 9.328285e-01
1.960000e+10 3.321902e-01 9.311228e-01
1.970000e+10 3.380951e-01 9.293838e-01
1.980000e+10 3.439543e-01 9.276157e-01
1.990000e+10 3.497691e-01 9.258224e-01
2.000000e+10 3.555419e-01 9.240073e-01
2.010000e+10 3.612756e-01 9.221730e-01
2.020000e+10 3.669740e-01 9.203207e-01
2.030000e+10 3.726407e-01 9.184508e-01
2.040000e+10 3.782793e-01 9.165623e-01
2.050000e+10 3.838925e-01 9.146531e-01
2.060000e+10 3.894824e-01 9.127205e-01
2.070000e+10 3.950497e-01 9.107613e-01
2.080000e+10 4.005942e-01 9.087722e-01
2.090000e+10 4.061143e-01 9.067502e-01
2.100000e+10 4.116075e-01 9.046930e-01
2.110000e+10 4.170707e-01 9.025992e-01
2.120000e+10 4.225002e-01 9.004685e-01
2.130000e+10 4.278924e-01 8.983018e-01
2.140000e+10 4.332439e-01 8.961012e-01
2.150000e+10 4.385522e-01 8.938696e-01
2.160000e+10 4.438156e-01 8.916108e-01
2.170000e+10 4.490336e-01 8.893289e-01
2.180000e+10 4.542070e-01 8.870279e-01
2.190000e+10 4.593376e-01 8.847114e-01
2.200000e+10 4.644282e-01 8.823825e-01
2.210000e+10 4.694822e-01 8.800431e-01
2.220000e+10 4.745034e-01 8.776938e-01
2.230000e+10 4.794957e-01 8.753344e-01
2.240000e+10 4.844622e-01 8.729632e-01
2.250000e+10 4.894056e-01 8.705778e-01
2.260000e+10 4.943274e-01 8.681751e-01
2.270000e+10 4.992280e-01 8.657515e-01
2.280000e+10 5.041065e-01 8.633038e-01
2.290000e+10 5.089609e-01 8.608292e-01
2.300000e+10 5.137884e-01 8.583255e-01
2.310000e+10 5.185856e-01 8.557918e-01
2.320000e+10 5.233486e-01 8.532282e-01
2.330000e+10 5.280740e-01 8.506361e-01
2.340000e+10 5.327587e-01 8.480180e-01
2.350000e+10 5.374005e-01 8.453773e-01
2.360000e+10 5.419982e-01 8.427180e-01
2.370000e+10 5.465519e-01 8.400442e-01
2.380000e+10 5.510630e-01 8.373598e-01
2.390000e+10 5.555338e-01 8.346683e-01
2.400000e+10 5.599677e-01 8.319722e-01
2.410000e+10 5.643684e-01 8.292729e-01
2.420000e+10 5.687401e-01 8.265706e-01
2.430000e+10 5.730864e-01 8.238641e-01
2.440000e+10 5.774106e-01 8.211512e-01
2.450000e+10 5.817148e-01 8.184291e-01
2.460000e+10 5.860002e-01 8.156939e-01
2.470000e+10 5.902666e-01 8.129422e-01
2.480000e+10 5.945125e-01 8.101705e-01
2.490000e+10 5.987355e-01 8.073760e-01
2.500000e+10 6.029322e-01 8.045569e-01
2.510000e+10 6.070988e-01 8.017127e-01
2.520000e+10 6.112312e-01 7.988440e-01
2.530000e+10 6.153260e-01 7.959528e-01
2.540000e+10 6.193803e-01 7.930422e-01
2.550000e+10 6.233921e-01 7.901160e-01
2.560000e+10 6.273609e-01 7.871786e-01
2.570000e+10 6.312874e-01 7.842343e-01
2.580000e+10 6.351736e-01 7.812871e-01
2.590000e+10 6.390225e-01 7.783403e-01
2.600000e+10 6.428381e-01 7.753959e-01
2.610000e+10 6.466247e-01 7.724549e-01
2.620000e+10 6.503866e-01 7.695167e-01
2.630000e+10 6.541278e-01 7.665796e-01
2.640000e+10 6.578513e-01 7.636405e-01
2.650000e+10 6.615590e-01 7.606958e-01
2.660000e+10 6.652517e-01 7.577413e-01
2.670000e+10 6.689284e-01 7.547730e-01
2.680000e+10 6.725872e-01 7.517873e-01
2.690000e+10 6.762249e-01 7.487814e-01
2.700000e+10 6.798373e-01 7.457539e-01
2.710000e+10 6.834202e-01 7.427045e-01
2.720000e+10 6.869694e-01 7.396345e-01
2.730000e+10 6.904809e-01 7.365466e-01
2.740000e+10 6.939522e-01 7.334445e-01
2.750000e+10 6.973816e-01 7.303327e-01
2.760000e+10 7.007691e-01 7.272160e-01
2.770000e+10 7.041161e-01 7.240992e-01
2.780000e+10 7.074252e-01 7.209864e-01
2.790000e+10 7.107005e-01 7.178806e-01
2.800000e+10 7.139465e-01 7.147836e-01
2.810000e+10 7.171683e-01 7.116956e-01
2.820000e+10 7.203705e-01 7.086154e-01
2.830000e+10 7.235573e-01 7.055403e-01
2.840000e+10 7.267317e-01 7.024664e-01
2.850000e+10 7.298953e-01 6.993893e-01
2.860000e+10 7.330482e-01 6.963040e-01
2.870000e+10 7.361889e-01 6.932060e-01
2.880000e+10 7.393143e-01 6.900913e-01
2.890000e+10 7.424204e-01 6.869574e-01
2.900000e+10 7.455024e-01 6.838028e-01
2.910000e+10 7.485550e-01 6.806280e-01
2.920000e+10 7.515737e-01 6.774351e-01
2.930000e+10 7.545543e-01 6.742274e-01
2.940000e+10 7.574941e-01 6.710098e-01
2.950000e+10 7.603920e-01 6.677875e-01
2.960000e+10 7.632484e-01 6.645661e-01
2.970000e+10 7.660656e-01 6.613508e-01
2.980000e+10 7.688473e-01 6.581460e-01
2.990000e+10 7.715985e-01 6.549546e-01
3.000000e+10 7.743247e-01 6.517781e-01
3.010000e+10 7.770317e-01 6.486158e-01
3.020000e+10 7.797248e-01 6.454657e-01
3.030000e+10 7.824085e-01 6.423240e-01
3.040000e+10 7.850855e-01 6.391856e-01
3.050000e+10 7.877573e-01 6.360450e-01
3.060000e+10 7.904230e-01 6.328965e-01
3.070000e+10 7.930801e-01 6.297347e-01
3.080000e+10 7.957246e-01 6.265556e-01
3.090000e+10 7.983512e-01 6.233564e-01
3.100000e+10 8.009538e-01 6.201363e-01
3.110000e+10 8.035265e-01 6.168964e-01
3.120000e+10 8.060638e-01 6.136399e-01
3.130000e+10 8.085614e-01 6.103715e-01
3.140000e+10 8.110168e-01 6.070971e-01
3.150000e+10 8.134291e-01 6.038232e-01
3.160000e+10 8.158000e-01 6.005565e-01
3.170000e+10 8.181327e-01 5.973027e-01
3.180000e+10 8.204325e-01 5.940666e-01
3.190000e+10 8.227056e-01 5.908508e-01
3.200000e+10 8.249590e-01 5.876562e-01
3.210000e+10 8.271996e-01 5.844811e-01
3.220000e+10 8.294335e-01 5.813221e-01
3.230000e+10 8.316653e-01 5.781738e-01
3.240000e+10 8.338979e-01 5.750297e-01
3.250000e+10 8.361318e-01 5.718825e-01
3.260000e+10 8.383652e-01 5.687253e-01
3.270000e+10 8.405941e-01 5.655519e-01
3.280000e+10 8.428127e-01 5.623578e-01
3.290000e+10 8.450140e-01 5.591404e-01
3.300000e+10 8.471903e-01 5.558995e-01
3.310000e+10 8.493342e-01 5.526376e-01
3.320000e+10 8.514393e-01 5.493592e-01
3.330000e+10 8.535010e-01 5.460710e-01
3.340000e+10 8.555168e-01 5.427807e-01
3.350000e+10 8.574869e-01 5.394967e-01
3.360000e+10 8.594140e-01 5.362270e-01
3.370000e+10 8.613033e-01 5.329785e-01
3.380000e+10 8.631620e-01 5.297561e-01
3.390000e+10 8.649985e-01 5.265623e-01
3.400000e+10 8.668218e-01 5.233970e-01
3.410000e+10 8.686403e-01 5.202570e-01
3.420000e+10 8.704613e-01 5.171369e-01
3.430000e+10 8.722898e-01 5.140289e-01
3.440000e+10 8.741283e-01 5.109240e-01
3.450000e+10 8.759764e-01 5.078130e-01
3.460000e+10 8.778306e-01 5.046869e-01
3.470000e+10 8.796845e-01 5.015383e-01
3.480000e+10 8.815300e-01 4.983622e-01
3.490000e+10 8.833572e-01 4.951562e-01
3.500000e+10 8.851561e-01 4.919214e-01
3.510000e+10 8.869172e-01 4.886619e-01
3.520000e+10 8.886328e-01 4.853848e-01
3.530000e+10 8.902976e-01 4.820994e-01
3.540000e+10 8.919095e-01 4.788165e-01
3.550000e+10 8.934698e-01 4.755469e-01
3.560000e+10 8.949834e-01 4.723010e-01
3.570000e+10 8.964582e-01 4.690870e-01
3.580000e+10 8.979043e-01 4.659105e-01
3.590000e+10 8.993333e-01 4.627736e-01
3.600000e+10 9.007570e-01 4.596745e-01
3.610000e+10 9.021863e-01 4.566081e-01
3.620000e+10 9.036300e-01 4.535657e-01
3.630000e+10 9.050937e-01 4.505363e-01
3.640000e+10 9.065793e-01 4.475075e-01
3.650000e+10 9.080848e-01 4.444668e-01
3.660000e+10 9.096040e-01 4.414026e-01
3.670000e+10 9.111276e-01 4.383060e-01
3.680000e+10 9.126432e-01 4.351712e-01
3.690000e+10 9.141376e-01 4.319967e-01
3.700000e+10 9.155969e-01 4.287853e-01
3.710000e+10 9.170091e-01 4.255441e-01
3.720000e+10 9.183645e-01 4.222840e-01
3.730000e+10 9.196575e-01 4.190184e-01
3.740000e+10 9.208867e-01 4.157623e-01
3.750000e+10 9.220558e-01 4.125307e-01
3.760000e+10 9.231730e-01 4.093366e-01
3.770000e+10 9.242503e-01 4.061904e-01
3.780000e+10 9.253028e-01 4.030979e-01
3.790000e+10 9.263469e-01 4.000602e-01
3.800000e+10 9.273986e-01 3.970731e-01
3.810000e+10 9.284722e-01 3.941274e-01
3.820000e+10 9.295785e-01 3.912097e-01
3.830000e+10 9.307237e-01 3.883035e-01
3.840000e+10 9.319084e-01 3.853912e-01
3.850000e+10 9.331276e-01 3.824552e-01
3.860000e+10 9.343710e-01 3.794805e-01
3.870000e+10 9.356234e-01 3.764556e-01
3.880000e+10 9.368668e-01 3.733745e-01
3.890000e+10 9.380817e-01 3.702369e-01
3.900000e+10 9.392490e-01 3.670493e-01
3.910000e+10 9.403524e-01 3.638236e-01
3.920000e+10 9.413800e-01 3.605770e-01
3.930000e+10 9.423256e-01 3.573298e-01
3.940000e+10 9.431900e-01 3.541038e-01
3.950000e+10 9.439807e-01 3.509198e-01
3.960000e+10 9.447118e-01 3.477957e-01
3.970000e+10 9.454027e-01 3.447441e-01
3.980000e+10 9.460760e-01 3.417714e-01
3.990000e+10 9.467560e-01 3.388762e-01
4.000000e+10 9.474655e-01 3.360497e-01
