#   Hz   S  RI   R   50
!
0.000000e+00 -9.127422e-01 0.000000e+00
1.000000e+08 -9.126831e-01 9.670441e-03
2.000000e+08 -9.125058e-01 1.933817e-02
3.000000e+08 -9.122105e-01 2.900049e-02
4.000000e+08 -9.117975e-01 3.865471e-02
5.000000e+08 -9.112672e-01 4.829816e-02
6.000000e+08 -9.106201e-01 5.792820e-02
7.000000e+08 -9.098567e-01 6.754224e-02
8.000000e+08 -9.089779e-01 7.713771e-02
9.000000e+08 -9.079844e-01 8.671211e-02
1.000000e+09 -9.068771e-01 9.626296e-02
1.100000e+09 -9.056571e-01 1.057879e-01
1.200000e+09 -9.043254e-01 1.152845e-01
1.300000e+09 -9.028832e-01 1.247506e-01
1.400000e+09 -9.013318e-01 1.341840e-01
1.500000e+09 -8.996724e-01 1.435825e-01
1.600000e+09 -8.979065e-01 1.529441e-01
1.700000e+09 -8.960354e-01 1.622669e-01
1.800000e+09 -8.940608e-01 1.715490e-01
1.900000e+09 -8.919840e-01 1.807885e-01
2.000000e+09 -8.898068e-01 1.899838e-01
2.100000e+09 -8.875307e-01 1.991332e-01
2.200000e+09 -8.851573e-01 2.082353e-01
2.300000e+09 -8.826883e-01 2.172885e-01
2.400000e+09 -8.801255e-01 2.262915e-01
2.500000e+09 -8.774704e-01 2.352430e-01
2.600000e+09 -8.747249e-01 2.441418e-01
2.700000e+09 -8.718906e-01 2.529868e-01
2.800000e+09 -8.689692e-01 2.617769e-01
2.900000e+09 -8.659624e-01 2.705112e-01
3.000000e+09 -8.628719e-01 2.791887e-01
3.100000e+09 -8.596995e-01 2.878086e-01
3.200000e+09 -8.564467e-01 2.963702e-01
3.300000e+09 -8.531152e-01 3.048727e-01
3.400000e+09 -8.497067e-01 3.133155e-01
3.500000e+09 -8.462227e-01 3.216981e-01
3.600000e+09 -8.426649e-01 3.300198e-01
3.700000e+09 -8.390348e-01 3.382802e-01
3.800000e+09 -8.353340e-01 3.464789e-01
3.900000e+09 -8.315639e-01 3.546154e-01
4.000000e+09 -8.277259e-01 3.626895e-01
4.100000e+09 -8.238217e-01 3.707008e-01
4.200000e+09 -8.198525e-01 3.786490e-01
4.300000e+09 -8.158198e-01 3.865339e-01
4.400000e+09 -8.117249e-01 3.943552e-01
4.500000e+09 -8.075691e-01 4.021129e-01
4.600000e+09 -8.033538e-01 4.098067e-01
4.700000e+09 -7.990802e-01 4.174365e-01
4.800000e+09 -7.947495e-01 4.250022e-01
4.900000e+09 -7.903630e-01 4.325036e-01
5.000000e+09 -7.859218e-01 4.399408e-01
5.100000e+09 -7.814271e-01 4.473137e-01
5.200000e+09 -7.768801e-01 4.546221e-01
5.300000e+09 -7.722818e-01 4.618661e-01
5.400000e+09 -7.676334e-01 4.690456e-01
5.500000e+09 -7.629358e-01 4.761607e-01
5.600000e+09 -7.581902e-01 4.832112e-01
5.700000e+09 -7.533976e-01 4.901973e-01
5.800000e+09 -7.485588e-01 4.971190e-01
5.900000e+09 -7.436751e-01 5.039762e-01
6.000000e+09 -7.387472e-01 5.107689e-01
6.100000e+09 -7.337762e-01 5.174973e-01
6.200000e+09 -7.287629e-01 5.241613e-01
6.300000e+09 -7.237084e-01 5.307610e-01
6.400000e+09 -7.186134e-01 5.372964e-01
6.500000e+09 -7.134790e-01 5.437676e-01
6.600000e+09 -7.083059e-01 5.501746e-01
6.700000e+09 -7.030950e-01 5.565175e-01
6.800000e+09 -6.978471e-01 5.627963e-01
6.900000e+09 -6.925632e-01 5.690110e-01
7.000000e+09 -6.872441e-01 5.751618e-01
7.100000e+09 -6.818905e-01 5.812487e-01
7.200000e+09 -6.765032e-01 5.872719e-01
7.300000e+09 -6.710832e-01 5.932312e-01
7.400000e+09 -6.656311e-01 5.991269e-01
7.500000e+09 -6.601477e-01 6.049590e-01
7.600000e+09 -6.546339e-01 6.107276e-01
7.700000e+09 -6.490905e-01 6.164327e-01
7.800000e+09 -6.435181e-01 6.220746e-01
7.900000e+09 -6.379175e-01 6.276531e-01
8.000000e+09 -6.322895e-01 6.331686e-01
8.100000e+09 -6.266349e-01 6.386210e-01
8.200000e+09 -6.209543e-01 6.440105e-01
8.300000e+09 -6.152486e-01 6.493372e-01
8.400000e+09 -6.095184e-01 6.546011e-01
8.500000e+09 -6.037644e-01 6.598025e-01
8.600000e+09 -5.979875e-01 6.649414e-01
8.700000e+09 -5.921883e-01 6.700180e-01
8.800000e+09 -5.863675e-01 6.750324e-01
8.900000e+09 -5.805258e-01 6.799848e-01
9.000000e+09 -5.746639e-01 6.848753e-01
9.100000e+09 -5.687825e-01 6.897040e-01
9.200000e+09 -5.628824e-01 6.944712e-01
9.300000e+09 -5.569641e-01 6.991769e-01
9.400000e+09 -5.510284e-01 7.038214e-01
9.500000e+09 -5.450759e-01 7.084048e-01
9.600000e+09 -5.391073e-01 7.129273e-01
9.700000e+09 -5.331233e-01 7.173891e-01
9.800000e+09 -5.271245e-01 7.217904e-01
9.900000e+09 -5.211115e-01 7.261314e-01
1.000000e+10 -5.150851e-01 7.304123e-01
1.010000e+10 -5.090458e-01 7.346332e-01
1.020000e+10 -5.029942e-01 7.387946e-01
1.030000e+10 -4.969311e-01 7.428964e-01
1.040000e+10 -4.908570e-01 7.469390e-01
1.050000e+10 -4.847725e-01 7.509227e-01
1.060000e+10 -4.786783e-01 7.548476e-01
1.070000e+10 -4.725749e-01 7.587140e-01
1.080000e+10 -4.664629e-01 7.625221e-01
1.090000e+10 -4.603430e-01 7.662722e-01
1.100000e+10 -4.542156e-01 7.699646e-01
1.110000e+10 -4.480814e-01 7.735996e-01
1.120000e+10 -4.419409e-01 7.771773e-01
1.130000e+10 -4.357947e-01 7.806981e-01
1.140000e+10 -4.296433e-01 7.841623e-01
1.150000e+10 -4.234873e-01 7.875701e-01
1.160000e+10 -4.173272e-01 7.909218e-01
1.170000e+10 -4.111635e-01 7.942178e-01
1.180000e+10 -4.049968e-01 7.974583e-01
1.190000e+10 -3.988275e-01 8.006436e-01
1.200000e+10 -3.926563e-01 8.037741e-01
1.210000e+10 -3.864834e-01 8.068500e-01
1.220000e+10 -3.803096e-01 8.098717e-01
1.230000e+10 -3.741352e-01 8.128394e-01
1.240000e+10 -3.679606e-01 8.157536e-01
1.250000e+10 -3.617865e-01 8.186144e-01
1.260000e+10 -3.556132e-01 8.214223e-01
1.270000e+10 -3.494412e-01 8.241776e-01
1.280000e+10 -3.432709e-01 8.268805e-01
1.290000e+10 -3.371028e-01 8.295315e-01
1.300000e+10 -3.309372e-01 8.321309e-01
1.310000e+10 -3.247747e-01 8.346789e-01
1.320000e+10 -3.186156e-01 8.371760e-01
1.330000e+10 -3.124603e-01 8.396225e-01
1.340000e+10 -3.063092e-01 8.420187e-01
1.350000e+10 -3.001627e-01 8.443649e-01
1.360000e+10 -2.940212e-01 8.466616e-01
1.370000e+10 -2.878851e-01 8.489090e-01
1.380000e+10 -2.817547e-01 8.511075e-01
1.390000e+10 -2.756305e-01 8.532574e-01
1.400000e+10 -2.695126e-01 8.553591e-01
1.410000e+10 -2.634016e-01 8.574130e-01
1.420000e+10 -2.572977e-01 8.594193e-01
1.430000e+10 -2.512012e-01 8.613784e-01
1.440000e+10 -2.451126e-01 8.632907e-01
1.450000e+10 -2.390320e-01 8.651566e-01
1.460000e+10 -2.329599e-01 8.669762e-01
1.470000e+10 -2.268965e-01 8.687501e-01
1.480000e+10 -2.208421e-01 8.704786e-01
1.490000e+10 -2.147971e-01 8.721619e-01
1.500000e+10 -2.087616e-01 8.738005e-01
1.510000e+10 -2.027361e-01 8.753947e-01
1.520000e+10 -1.967207e-01 8.769448e-01
1.530000e+10 -1.907157e-01 8.784512e-01
1.540000e+10 -1.847215e-01 8.799142e-01
1.550000e+10 -1.787382e-01 8.813341e-01
1.560000e+10 -1.727661e-01 8.827113e-01
1.570000e+10 -1.668055e-01 8.840462e-01
1.580000e+10 -1.608565e-01 8.853390e-01
1.590000e+10 -1.549196e-01 8.865901e-01
1.600000e+10 -1.489947e-01 8.877999e-01
1.610000e+10 -1.430823e-01 8.889686e-01
1.620000e+10 -1.371825e-01 8.900967e-01
1.630000e+10 -1.312956e-01 8.911843e-01
1.640000e+10 -1.254217e-01 8.922320e-01
1.650000e+10 -1.195610e-01 8.932399e-01
1.660000e+10 -1.137138e-01 8.942084e-01
1.670000e+10 -1.078803e-01 8.951378e-01
1.680000e+10 -1.020606e-01 8.960286e-01
1.690000e+10 -9.625504e-02 8.968809e-01
1.700000e+10 -9.046367e-02 8.976951e-01
1.710000e+10 -8.468673e-02 8.984715e-01
1.720000e+10 -7.892439e-02 8.992105e-01
1.730000e+10 -7.317683e-02 8.999123e-01
1.740000e+10 -6.744422e-02 9.005773e-01
1.750000e+10 -6.172673e-02 9.012058e-01
1.760000e+10 -5.602453e-02 9.017981e-01
1.770000e+10 -5.033777e-02 9.023545e-01
1.780000e+10 -4.466662e-02 9.028753e-01
1.790000e+10 -3.901123e-02 9.033608e-01
1.800000e+10 -3.337174e-02 9.038114e-01
1.810000e+10 -2.774832e-02 9.042273e-01
1.820000e+10 -2.214110e-02 9.046088e-01
1.830000e+10 -1.655022e-02 9.049563e-01
1.840000e+10 -1.097582e-02 9.052700e-01
1.850000e+10 -5.418042e-03 9.055503e-01
1.860000e+10 1.229867e-04 9.057974e-01
1.870000e+10 5.647136e-03 9.060117e-01
1.880000e+10 1.115428e-02 9.061933e-01
1.890000e+10 1.664430e-02 9.063428e-01
1.900000e+10 2.211707e-02 9.064602e-01
1.910000e+10 2.757247e-02 9.065460e-01
1.920000e+10 3.301039e-02 9.066004e-01
1.930000e+10 3.843072e-02 9.066236e-01
1.940000e+10 4.383335e-02 9.066161e-01
1.950000e+10 4.921817e-02 9.065781e-01
1.960000e+10 5.458509e-02 9.065098e-01
1.970000e+10 5.993399e-02 9.064115e-01
1.980000e+10 6.526479e-02 9.062836e-01
1.990000e+10 7.057739e-02 9.061264e-01
2.000000e+10 7.587169e-02 9.059400e-01
2.010000e+10 8.114761e-02 9.057248e-01
2.020000e+10 8.640507e-02 9.054811e-01
2.030000e+10 9.164397e-02 9.052091e-01
2.040000e+10 9.686423e-02 9.049091e-01
2.050000e+10 1.020658e-01 9.045815e-01
2.060000e+10 1.072486e-01 9.042264e-01
2.070000e+10 1.124125e-01 9.038441e-01
2.080000e+10 1.175574e-01 9.034350e-01
2.090000e+10 1.226834e-01 9.029993e-01
2.100000e+10 1.277903e-01 9.025373e-01
2.110000e+10 1.328781e-01 9.020492e-01
2.120000e+10 1.379467e-01 9.015353e-01
2.130000e+10 1.429961e-01 9.009959e-01
2.140000e+10 1.480262e-01 9.004312e-01
2.150000e+10 1.530369e-01 8.998415e-01
2.160000e+10 1.580283e-01 8.992271e-01
2.170000e+10 1.630002e-01 8.985883e-01
2.180000e+10 1.679526e-01 8.979252e-01
2.190000e+10 1.728855e-01 8.972382e-01
2.200000e+10 1.777988e-01 8.965275e-01
2.210000e+10 1.826925e-01 8.957934e-01
2.220000e+10 1.875666e-01 8.950361e-01
2.230000e+10 1.924211e-01 8.942559e-01
2.240000e+10 1.972558e-01 8.934530e-01
2.250000e+10 2.020709e-01 8.926277e-01
2.260000e+10 2.068661e-01 8.917803e-01
2.270000e+10 2.116417e-01 8.909109e-01
2.280000e+10 2.163974e-01 8.900198e-01
2.290000e+10 2.211334e-01 8.891074e-01
2.300000e+10 2.258496e-01 8.881737e-01
2.310000e+10 2.305459e-01 8.872191e-01
2.320000e+10 2.352224e-01 8.862439e-01
2.330000e+10 2.398791e-01 8.852481e-01
2.340000e+10 2.445159e-01 8.842321e-01
2.350000e+10 2.491329e-01 8.831961e-01
2.360000e+10 2.537301e-01 8.821404e-01
2.370000e+10 2.583074e-01 8.810651e-01
2.380000e+10 2.628649e-01 8.799706e-01
2.390000e+10 2.674025e-01 8.788569e-01
2.400000e+10 2.719203e-01 8.777244e-01
2.410000e+10 2.764183e-01 8.765733e-01
2.420000e+10 2.808966e-01 8.754037e-01
2.430000e+10 2.853550e-01 8.742160e-01
2.440000e+10 2.897936e-01 8.730103e-01
2.450000e+10 2.942125e-01 8.717868e-01
2.460000e+10 2.986117e-01 8.705458e-01
2.470000e+10 3.029911e-01 8.692874e-01
2.480000e+10 3.073509e-01 8.680119e-01
2.490000e+10 3.116909e-01 8.667195e-01
2.500000e+10 3.160113e-01 8.654103e-01
2.510000e+10 3.203121e-01 8.640846e-01
2.520000e+10 3.245933e-01 8.627426e-01
2.530000e+10 3.288549e-01 8.613845e-01
2.540000e+10 3.330970e-01 8.600105e-01
2.550000e+10 3.373196e-01 8.586207e-01
2.560000e+10 3.415227e-01 8.572154e-01
2.570000e+10 3.457063e-01 8.557947e-01
2.580000e+10 3.498706e-01 8.543588e-01
2.590000e+10 3.540154e-01 8.529080e-01
2.600000e+10 3.581409e-01 8.514423e-01
2.610000e+10 3.622471e-01 8.499620e-01
2.620000e+10 3.663341e-01 8.484673e-01
2.630000e+10 3.704017e-01 8.469583e-01
2.640000e+10 3.744502e-01 8.454353e-01
2.650000e+10 3.784796e-01 8.438983e-01
2.660000e+10 3.824898e-01 8.423475e-01
2.670000e+10 3.864810e-01 8.407832e-01
2.680000e+10 3.904531e-01 8.392055e-01
2.690000e+10 3.944062e-01 8.376145e-01
2.700000e+10 3.983403e-01 8.360105e-01
2.710000e+10 4.022556e-01 8.343935e-01
2.720000e+10 4.061519e-01 8.327637e-01
2.730000e+10 4.100294e-01 8.311214e-01
2.740000e+10 4.138882e-01 8.294666e-01
2.750000e+10 4.177282e-01 8.277995e-01
2.760000e+10 4.215494e-01 8.261203e-01
2.770000e+10 4.253521e-01 8.244292e-01
2.780000e+10 4.291361e-01 8.227261e-01
2.790000e+10 4.329015e-01 8.210114e-01
2.800000e+10 4.366484e-01 8.192852e-01
2.810000e+10 4.403768e-01 8.175476e-01
2.820000e+10 4.440867e-01 8.157988e-01
2.830000e+10 4.477782e-01 8.140388e-01
2.840000e+10 4.514514e-01 8.122679e-01
2.850000e+10 4.551063e-01 8.104862e-01
2.860000e+10 4.587429e-01 8.086938e-01
2.870000e+10 4.623613e-01 8.068909e-01
2.880000e+10 4.659615e-01 8.050777e-01
2.890000e+10 4.695435e-01 8.032541e-01
2.900000e+10 4.731075e-01 8.014205e-01
2.910000e+10 4.766534e-01 7.995768e-01
2.920000e+10 4.801812e-01 7.977234e-01
2.930000e+10 4.836912e-01 7.958602e-01
2.940000e+10 4.871832e-01 7.939875e-01
2.950000e+10 4.906573e-01 7.921053e-01
2.960000e+10 4.941137e-01 7.902138e-01
2.970000e+10 4.975522e-01 7.883131e-01
2.980000e+10 5.009730e-01 7.864034e-01
2.990000e+10 5.043761e-01 7.844847e-01
3.000000e+10 5.077616e-01 7.825573e-01
3.010000e+10 5.111295e-01 7.806212e-01
3.020000e+10 5.144798e-01 7.786766e-01
3.030000e+10 5.178127e-01 7.767235e-01
3.040000e+10 5.211280e-01 7.747622e-01
3.050000e+10 5.244260e-01 7.727927e-01
3.060000e+10 5.277067e-01 7.708152e-01
3.070000e+10 5.309700e-01 7.688298e-01
3.080000e+10 5.342161e-01 7.668366e-01
3.090000e+10 5.374449e-01 7.648357e-01
3.100000e+10 5.406566e-01 7.628273e-01
3.110000e+10 5.438513e-01 7.608115e-01
3.120000e+10 5.470288e-01 7.587883e-01
3.130000e+10 5.501894e-01 7.567580e-01
3.140000e+10 5.533331e-01 7.547206e-01
3.150000e+10 5.564598e-01 7.526763e-01
3.160000e+10 5.595697e-01 7.506251e-01
3.170000e+10 5.626629e-01 7.485672e-01
3.180000e+10 5.657393e-01 7.465027e-01
3.190000e+10 5.687990e-01 7.444317e-01
3.200000e+10 5.718422e-01 7.423543e-01
3.210000e+10 5.748688e-01 7.402707e-01
3.220000e+10 5.778789e-01 7.381808e-01
3.230000e+10 5.808726e-01 7.360850e-01
3.240000e+10 5.838499e-01 7.339832e-01
3.250000e+10 5.868109e-01 7.318755e-01
3.260000e+10 5.897557e-01 7.297622e-01
3.270000e+10 5.926842e-01 7.276432e-01
3.280000e+10 5.955967e-01 7.255186e-01
3.290000e+10 5.984931e-01 7.233887e-01
3.300000e+10 6.013735e-01 7.212534e-01
3.310000e+10 6.042380e-01 7.191128e-01
3.320000e+10 6.070866e-01 7.169672e-01
3.330000e+10 6.099194e-01 7.148165e-01
3.340000e+10 6.127365e-01 7.126608e-01
3.350000e+10 6.155379e-01 7.105003e-01
3.360000e+10 6.183237e-01 7.083350e-01
3.370000e+10 6.210940e-01 7.061650e-01
3.380000e+10 6.238488e-01 7.039905e-01
3.390000e+10 6.265883e-01 7.018114e-01
3.400000e+10 6.293123e-01 6.996279e-01
3.410000e+10 6.320212e-01 6.974401e-01
3.420000e+10 6.347148e-01 6.952479e-01
3.430000e+10 6.373933e-01 6.930516e-01
3.440000e+10 6.400567e-01 6.908512e-01
3.450000e+10 6.427052e-01 6.886467e-01
3.460000e+10 6.453387e-01 6.864383e-01
3.470000e+10 6.479573e-01 6.842259e-01
3.480000e+10 6.505612e-01 6.820097e-01
3.490000e+10 6.531503e-01 6.797898e-01
3.500000e+10 6.557247e-01 6.775661e-01
3.510000e+10 6.582846e-01 6.753388e-01
3.520000e+10 6.608299e-01 6.731079e-01
3.530000e+10 6.633607e-01 6.708735e-01
3.540000e+10 6.658771e-01 6.686356e-01
3.550000e+10 6.683791e-01 6.663943e-01
3.560000e+10 6.708669e-01 6.641497e-01
3.570000e+10 6.733404e-01 6.619017e-01
3.580000e+10 6.757997e-01 6.596505e-01
3.590000e+10 6.782449e-01 6.573961e-01
3.600000e+10 6.806761e-01 6.551385e-01
3.610000e+10 6.830932e-01 6.528779e-01
3.620000e+10 6.854963e-01 6.506142e-01
3.630000e+10 6.878856e-01 6.483474e-01
3.640000e+10 6.902610e-01 6.460777e-01
3.650000e+10 6.926225e-01 6.438051e-01
3.660000e+10 6.949703e-01 6.415296e-01
3.670000e+10 6.973044e-01 6.392513e-01
3.680000e+10 6.996248e-01 6.369701e-01
3.690000e+10 7.019315e-01 6.346863e-01
3.700000e+10 7.042247e-01 6.323997e-01
3.710000e+10 7.065043e-01 6.301104e-01
3.720000e+10 7.087704e-01 6.278185e-01
3.730000e+10 7.110230e-01 6.255241e-01
3.740000e+10 7.132622e-01 6.232271e-01
3.750000e+10 7.154880e-01 6.209275e-01
3.760000e+10 7.177004e-01 6.186256e-01
3.770000e+10 7.198994e-01 6.163212e-01
3.780000e+10 7.220851e-01 6.140144e-01
3.790000e+10 7.242576e-01 6.117054e-01
3.800000e+10 7.264168e-01 6.093940e-01
3.810000e+10 7.285628e-01 6.070804e-01
3.820000e+10 7.306956e-01 6.047646e-01
3.830000e+10 7.328152e-01 6.024467e-01
3.840000e+10 7.349217e-01 6.001268e-01
3.850000e+10 7.370150e-01 5.978047e-01
3.860000e+10 7.390953e-01 5.954807e-01
3.870000e+10 7.411625e-01 5.931548e-01
3.880000e+10 7.432167e-01 5.908270e-01
3.890000e+10 7.452579e-01 5.884974e-01
3.900000e+10 7.472861e-01 5.861661e-01
3.910000e+10 7.493013e-01 5.838331e-01
3.920000e+10 7.513036e-01 5.814984e-01
3.930000e+10 7.532931e-01 5.791622e-01
3.940000e+10 7.552696e-01 5.768246e-01
3.950000e+10 7.572334e-01 5.744855e-01
3.960000e+10 7.591843e-01 5.721450e-01
3.970000e+10 7.611225e-01 5.698033e-01
3.980000e+10 7.630480e-01 5.674604e-01
3.990000e+10 7.649608e-01 5.651164e-01
4.000000e+10 7.668610e-01 5.627713e-01
