#   Hz   S  RI   R   50
!
0.000000e+00 -9.146770e-01 0.000000e+00
1.000000e+08 -9.146252e-01 8.973883e-03
2.000000e+08 -9.144696e-01 1.794543e-02
3.000000e+08 -9.142105e-01 2.691232e-02
4.000000e+08 -9.138482e-01 3.587222e-02
5.000000e+08 -9.133829e-01 4.482285e-02
6.000000e+08 -9.128150e-01 5.376192e-02
7.000000e+08 -9.121453e-01 6.268721e-02
8.000000e+08 -9.113742e-01 7.159651e-02
9.000000e+08 -9.105024e-01 8.048765e-02
1.000000e+09 -9.095308e-01 8.935853e-02
1.100000e+09 -9.084603e-01 9.820708e-02
1.200000e+09 -9.072917e-01 1.070313e-01
1.300000e+09 -9.060261e-01 1.158292e-01
1.400000e+09 -9.046647e-01 1.245990e-01
1.500000e+09 -9.032084e-01 1.333388e-01
1.600000e+09 -9.016586e-01 1.420469e-01
1.700000e+09 -9.000165e-01 1.507216e-01
1.800000e+09 -8.982833e-01 1.593614e-01
1.900000e+09 -8.964604e-01 1.679646e-01
2.000000e+09 -8.945493e-01 1.765298e-01
2.100000e+09 -8.925512e-01 1.850557e-01
2.200000e+09 -8.904675e-01 1.935409e-01
2.300000e+09 -8.882999e-01 2.019842e-01
2.400000e+09 -8.860496e-01 2.103846e-01
2.500000e+09 -8.837182e-01 2.187408e-01
2.600000e+09 -8.813071e-01 2.270519e-01
2.700000e+09 -8.788178e-01 2.353169e-01
2.800000e+09 -8.762518e-01 2.435350e-01
2.900000e+09 -8.736105e-01 2.517053e-01
3.000000e+09 -8.708954e-01 2.598271e-01
3.100000e+09 -8.681080e-01 2.678998e-01
3.200000e+09 -8.652496e-01 2.759226e-01
3.300000e+09 -8.623217e-01 2.838951e-01
3.400000e+09 -8.593256e-01 2.918166e-01
3.500000e+09 -8.562628e-01 2.996868e-01
3.600000e+09 -8.531345e-01 3.075051e-01
3.700000e+09 -8.499422e-01 3.152713e-01
3.800000e+09 -8.466871e-01 3.229849e-01
3.900000e+09 -8.433704e-01 3.306456e-01
4.000000e+09 -8.399935e-01 3.382533e-01
4.100000e+09 -8.365575e-01 3.458076e-01
4.200000e+09 -8.330636e-01 3.533083e-01
4.300000e+09 -8.295131e-01 3.607553e-01
4.400000e+09 -8.259070e-01 3.681484e-01
4.500000e+09 -8.222464e-01 3.754875e-01
4.600000e+09 -8.185324e-01 3.827724e-01
4.700000e+09 -8.147661e-01 3.900031e-01
4.800000e+09 -8.109485e-01 3.971795e-01
4.900000e+09 -8.070807e-01 4.043015e-01
5.000000e+09 -8.031635e-01 4.113691e-01
5.100000e+09 -7.991979e-01 4.183823e-01
5.200000e+09 -7.951850e-01 4.253410e-01
5.300000e+09 -7.911255e-01 4.322452e-01
5.400000e+09 -7.870204e-01 4.390949e-01
5.500000e+09 -7.828705e-01 4.458901e-01
5.600000e+09 -7.786767e-01 4.526308e-01
5.700000e+09 -7.744399e-01 4.593170e-01
5.800000e+09 -7.701607e-01 4.659488e-01
5.900000e+09 -7.658401e-01 4.725261e-01
6.000000e+09 -7.614788e-01 4.790490e-01
6.100000e+09 -7.570775e-01 4.855176e-01
6.200000e+09 -7.526371e-01 4.919317e-01
6.300000e+09 -7.481582e-01 4.982915e-01
6.400000e+09 -7.436415e-01 5.045970e-01
6.500000e+09 -7.390878e-01 5.108483e-01
6.600000e+09 -7.344978e-01 5.170453e-01
6.700000e+09 -7.298722e-01 5.231881e-01
6.800000e+09 -7.252116e-01 5.292767e-01
6.900000e+09 -7.205167e-01 5.353112e-01
7.000000e+09 -7.157882e-01 5.412916e-01
7.100000e+09 -7.110267e-01 5.472179e-01
7.200000e+09 -7.062329e-01 5.530902e-01
7.300000e+09 -7.014074e-01 5.589085e-01
7.400000e+09 -6.965508e-01 5.646729e-01
7.500000e+09 -6.916638e-01 5.703834e-01
7.600000e+09 -6.867470e-01 5.760401e-01
7.700000e+09 -6.818010e-01 5.816429e-01
7.800000e+09 -6.768264e-01 5.871919e-01
7.900000e+09 -6.718238e-01 5.926873e-01
8.000000e+09 -6.667938e-01 5.981289e-01
8.100000e+09 -6.617371e-01 6.035170e-01
8.200000e+09 -6.566541e-01 6.088514e-01
8.300000e+09 -6.515455e-01 6.141324e-01
8.400000e+09 -6.464119e-01 6.193599e-01
8.500000e+09 -6.412539e-01 6.245340e-01
8.600000e+09 -6.360720e-01 6.296548e-01
8.700000e+09 -6.308668e-01 6.347224e-01
8.800000e+09 -6.256389e-01 6.397367e-01
8.900000e+09 -6.203888e-01 6.446980e-01
9.000000e+09 -6.151172e-01 6.496062e-01
9.100000e+09 -6.098245e-01 6.544614e-01
9.200000e+09 -6.045113e-01 6.592638e-01
9.300000e+09 -5.991783e-01 6.640134e-01
9.400000e+09 -5.938259e-01 6.687103e-01
9.500000e+09 -5.884546e-01 6.733546e-01
9.600000e+09 -5.830651e-01 6.779464e-01
9.700000e+09 -5.776579e-01 6.824858e-01
9.800000e+09 -5.722335e-01 6.869729e-01
9.900000e+09 -5.667925e-01 6.914079e-01
1.000000e+10 -5.613353e-01 6.957908e-01
1.010000e+10 -5.558625e-01 7.001218e-01
1.020000e+10 -5.503747e-01 7.044010e-01
1.030000e+10 -5.448723e-01 7.086285e-01
1.040000e+10 -5.393559e-01 7.128045e-01
1.050000e+10 -5.338259e-01 7.169291e-01
1.060000e+10 -5.282830e-01 7.210025e-01
1.070000e+10 -5.227275e-01 7.250248e-01
1.080000e+10 -5.171601e-01 7.289961e-01
1.090000e+10 -5.115811e-01 7.329166e-01
1.100000e+10 -5.059911e-01 7.367866e-01
1.110000e+10 -5.003906e-01 7.406060e-01
1.120000e+10 -4.947800e-01 7.443752e-01
1.130000e+10 -4.891598e-01 7.480943e-01
1.140000e+10 -4.835306e-01 7.517634e-01
1.150000e+10 -4.778927e-01 7.553828e-01
1.160000e+10 -4.722466e-01 7.589526e-01
1.170000e+10 -4.665928e-01 7.624731e-01
1.180000e+10 -4.609318e-01 7.659444e-01
1.190000e+10 -4.552639e-01 7.693668e-01
1.200000e+10 -4.495897e-01 7.727403e-01
1.210000e+10 -4.439095e-01 7.760653e-01
1.220000e+10 -4.382238e-01 7.793420e-01
1.230000e+10 -4.325330e-01 7.825705e-01
1.240000e+10 -4.268376e-01 7.857511e-01
1.250000e+10 -4.211380e-01 7.888840e-01
1.260000e+10 -4.154345e-01 7.919694e-01
1.270000e+10 -4.097275e-01 7.950075e-01
1.280000e+10 -4.040176e-01 7.979986e-01
1.290000e+10 -3.983050e-01 8.009429e-01
1.300000e+10 -3.925902e-01 8.038406e-01
1.310000e+10 -3.868734e-01 8.066920e-01
1.320000e+10 -3.811552e-01 8.094973e-01
1.330000e+10 -3.754359e-01 8.122567e-01
1.340000e+10 -3.697158e-01 8.149705e-01
1.350000e+10 -3.639954e-01 8.176390e-01
1.360000e+10 -3.582749e-01 8.202622e-01
1.370000e+10 -3.525547e-01 8.228406e-01
1.380000e+10 -3.468351e-01 8.253744e-01
1.390000e+10 -3.411166e-01 8.278638e-01
1.400000e+10 -3.353993e-01 8.303090e-01
1.410000e+10 -3.296838e-01 8.327103e-01
1.420000e+10 -3.239702e-01 8.350680e-01
1.430000e+10 -3.182588e-01 8.373823e-01
1.440000e+10 -3.125501e-01 8.396535e-01
1.450000e+10 -3.068443e-01 8.418818e-01
1.460000e+10 -3.011418e-01 8.440674e-01
1.470000e+10 -2.954427e-01 8.462107e-01
1.480000e+10 -2.897474e-01 8.483119e-01
1.490000e+10 -2.840562e-01 8.503712e-01
1.500000e+10 -2.783694e-01 8.523889e-01
1.510000e+10 -2.726873e-01 8.543652e-01
1.520000e+10 -2.670100e-01 8.563005e-01
1.530000e+10 -2.613380e-01 8.581949e-01
1.540000e+10 -2.556714e-01 8.600488e-01
1.550000e+10 -2.500105e-01 8.618623e-01
1.560000e+10 -2.443556e-01 8.636358e-01
1.570000e+10 -2.387069e-01 8.653695e-01
1.580000e+10 -2.330647e-01 8.670636e-01
1.590000e+10 -2.274291e-01 8.687184e-01
1.600000e+10 -2.218006e-01 8.703342e-01
1.610000e+10 -2.161791e-01 8.719112e-01
1.620000e+10 -2.105651e-01 8.734497e-01
1.630000e+10 -2.049588e-01 8.749499e-01
1.640000e+10 -1.993603e-01 8.764121e-01
1.650000e+10 -1.937698e-01 8.778365e-01
1.660000e+10 -1.881877e-01 8.792234e-01
1.670000e+10 -1.826141e-01 8.805730e-01
1.680000e+10 -1.770491e-01 8.818856e-01
1.690000e+10 -1.714931e-01 8.831615e-01
1.700000e+10 -1.659462e-01 8.844009e-01
1.710000e+10 -1.604086e-01 8.856039e-01
1.720000e+10 -1.548805e-01 8.867710e-01
1.730000e+10 -1.493621e-01 8.879023e-01
1.740000e+10 -1.438536e-01 8.889981e-01
1.750000e+10 -1.383552e-01 8.900587e-01
1.760000e+10 -1.328670e-01 8.910842e-01
1.770000e+10 -1.273893e-01 8.920749e-01
1.780000e+10 -1.219221e-01 8.930311e-01
1.790000e+10 -1.164658e-01 8.939531e-01
1.800000e+10 -1.110204e-01 8.948409e-01
1.810000e+10 -1.055861e-01 8.956950e-01
1.820000e+10 -1.001631e-01 8.965156e-01
1.830000e+10 -9.475154e-02 8.973028e-01
1.840000e+10 -8.935159e-02 8.980569e-01
1.850000e+10 -8.396341e-02 8.987782e-01
1.860000e+10 -7.858715e-02 8.994670e-01
1.870000e+10 -7.322295e-02 9.001234e-01
1.880000e+10 -6.787098e-02 9.007476e-01
1.890000e+10 -6.253137e-02 9.013400e-01
1.900000e+10 -5.720427e-02 9.019008e-01
1.910000e+10 -5.188982e-02 9.024302e-01
1.920000e+10 -4.658816e-02 9.029284e-01
1.930000e+10 -4.129943e-02 9.033957e-01
1.940000e+10 -3.602376e-02 9.038323e-01
1.950000e+10 -3.076129e-02 9.042384e-01
1.960000e+10 -2.551214e-02 9.046144e-01
1.970000e+10 -2.027645e-02 9.049604e-01
1.980000e+10 -1.505433e-02 9.052766e-01
1.990000e+10 -9.845905e-03 9.055633e-01
2.000000e+10 -4.651305e-03 9.058207e-01
2.010000e+10 5.293579e-04 9.060491e-01
2.020000e+10 5.695967e-03 9.062487e-01
2.030000e+10 1.084841e-02 9.064197e-01
2.040000e+10 1.598657e-02 9.065624e-01
2.050000e+10 2.111035e-02 9.066769e-01
2.060000e+10 2.621964e-02 9.067636e-01
2.070000e+10 3.131432e-02 9.068226e-01
2.080000e+10 3.639431e-02 9.068542e-01
2.090000e+10 4.145951e-02 9.068586e-01
2.100000e+10 4.650980e-02 9.068360e-01
2.110000e+10 5.154511e-02 9.067867e-01
2.120000e+10 5.656533e-02 9.067109e-01
2.130000e+10 6.157039e-02 9.066088e-01
2.140000e+10 6.656018e-02 9.064806e-01
2.150000e+10 7.153462e-02 9.063266e-01
2.160000e+10 7.649364e-02 9.061471e-01
2.170000e+10 8.143715e-02 9.059421e-01
2.180000e+10 8.636507e-02 9.057120e-01
2.190000e+10 9.127733e-02 9.054570e-01
2.200000e+10 9.617385e-02 9.051772e-01
2.210000e+10 1.010546e-01 9.048730e-01
2.220000e+10 1.059194e-01 9.045446e-01
2.230000e+10 1.107683e-01 9.041921e-01
2.240000e+10 1.156012e-01 9.038157e-01
2.250000e+10 1.204180e-01 9.034158e-01
2.260000e+10 1.252187e-01 9.029925e-01
2.270000e+10 1.300032e-01 9.025461e-01
2.280000e+10 1.347714e-01 9.020767e-01
2.290000e+10 1.395234e-01 9.015846e-01
2.300000e+10 1.442590e-01 9.010700e-01
2.310000e+10 1.489782e-01 9.005331e-01
2.320000e+10 1.536809e-01 8.999741e-01
2.330000e+10 1.583672e-01 8.993932e-01
2.340000e+10 1.630370e-01 8.987907e-01
2.350000e+10 1.676902e-01 8.981668e-01
2.360000e+10 1.723268e-01 8.975216e-01
2.370000e+10 1.769467e-01 8.968554e-01
2.380000e+10 1.815500e-01 8.961684e-01
2.390000e+10 1.861365e-01 8.954608e-01
2.400000e+10 1.907064e-01 8.947327e-01
2.410000e+10 1.952595e-01 8.939845e-01
2.420000e+10 1.997958e-01 8.932162e-01
2.430000e+10 2.043152e-01 8.924282e-01
2.440000e+10 2.088179e-01 8.916205e-01
2.450000e+10 2.133037e-01 8.907935e-01
2.460000e+10 2.177726e-01 8.899473e-01
2.470000e+10 2.222247e-01 8.890820e-01
2.480000e+10 2.266599e-01 8.881979e-01
2.490000e+10 2.310781e-01 8.872952e-01
2.500000e+10 2.354795e-01 8.863741e-01
2.510000e+10 2.398639e-01 8.854347e-01
2.520000e+10 2.442313e-01 8.844773e-01
2.530000e+10 2.485819e-01 8.835020e-01
2.540000e+10 2.529155e-01 8.825090e-01
2.550000e+10 2.572321e-01 8.814985e-01
2.560000e+10 2.615318e-01 8.804707e-01
2.570000e+10 2.658146e-01 8.794258e-01
2.580000e+10 2.700804e-01 8.783639e-01
2.590000e+10 2.743292e-01 8.772852e-01
2.600000e+10 2.785611e-01 8.761899e-01
2.610000e+10 2.827761e-01 8.750782e-01
2.620000e+10 2.869742e-01 8.739502e-01
2.630000e+10 2.911553e-01 8.728061e-01
2.640000e+10 2.953195e-01 8.716461e-01
2.650000e+10 2.994668e-01 8.704703e-01
2.660000e+10 3.035973e-01 8.692789e-01
2.670000e+10 3.077108e-01 8.680721e-01
2.680000e+10 3.118075e-01 8.668501e-01
2.690000e+10 3.158873e-01 8.656129e-01
2.700000e+10 3.199503e-01 8.643608e-01
2.710000e+10 3.239964e-01 8.630939e-01
2.720000e+10 3.280257e-01 8.618124e-01
2.730000e+10 3.320382e-01 8.605164e-01
2.740000e+10 3.360340e-01 8.592060e-01
2.750000e+10 3.400129e-01 8.578815e-01
2.760000e+10 3.439752e-01 8.565430e-01
2.770000e+10 3.479206e-01 8.551906e-01
2.780000e+10 3.518494e-01 8.538245e-01
2.790000e+10 3.557615e-01 8.524448e-01
2.800000e+10 3.596569e-01 8.510516e-01
2.810000e+10 3.635356e-01 8.496452e-01
2.820000e+10 3.673977e-01 8.482256e-01
2.830000e+10 3.712432e-01 8.467930e-01
2.840000e+10 3.750721e-01 8.453476e-01
2.850000e+10 3.788844e-01 8.438894e-01
2.860000e+10 3.826802e-01 8.424186e-01
2.870000e+10 3.864594e-01 8.409354e-01
2.880000e+10 3.902221e-01 8.394399e-01
2.890000e+10 3.939683e-01 8.379321e-01
2.900000e+10 3.976981e-01 8.364124e-01
2.910000e+10 4.014114e-01 8.348807e-01
2.920000e+10 4.051083e-01 8.333372e-01
2.930000e+10 4.087887e-01 8.317821e-01
2.940000e+10 4.124528e-01 8.302154e-01
2.950000e+10 4.161005e-01 8.286374e-01
2.960000e+10 4.197319e-01 8.270481e-01
2.970000e+10 4.233470e-01 8.254476e-01
2.980000e+10 4.269458e-01 8.238362e-01
2.990000e+10 4.305283e-01 8.222138e-01
3.000000e+10 4.340945e-01 8.205807e-01
3.010000e+10 4.376446e-01 8.189370e-01
3.020000e+10 4.411785e-01 8.172828e-01
3.030000e+10 4.446961e-01 8.156181e-01
3.040000e+10 4.481977e-01 8.139432e-01
3.050000e+10 4.516831e-01 8.122582e-01
3.060000e+10 4.551524e-01 8.105632e-01
3.070000e+10 4.586057e-01 8.088582e-01
3.080000e+10 4.620429e-01 8.071435e-01
3.090000e+10 4.654641e-01 8.054192e-01
3.100000e+10 4.688693e-01 8.036853e-01
3.110000e+10 4.722585e-01 8.019420e-01
3.120000e+10 4.756319e-01 8.001894e-01
3.130000e+10 4.789893e-01 7.984276e-01
3.140000e+10 4.823308e-01 7.966568e-01
3.150000e+10 4.856565e-01 7.948770e-01
3.160000e+10 4.889664e-01 7.930884e-01
3.170000e+10 4.922604e-01 7.912911e-01
3.180000e+10 4.955388e-01 7.894852e-01
3.190000e+10 4.988014e-01 7.876708e-01
3.200000e+10 5.020483e-01 7.858481e-01
3.210000e+10 5.052796e-01 7.840171e-01
3.220000e+10 5.084953e-01 7.821780e-01
3.230000e+10 5.116953e-01 7.803309e-01
3.240000e+10 5.148798e-01 7.784759e-01
3.250000e+10 5.180488e-01 7.766130e-01
3.260000e+10 5.212024e-01 7.747425e-01
3.270000e+10 5.243405e-01 7.728644e-01
3.280000e+10 5.274632e-01 7.709789e-01
3.290000e+10 5.305705e-01 7.690860e-01
3.300000e+10 5.336625e-01 7.671858e-01
3.310000e+10 5.367393e-01 7.652785e-01
3.320000e+10 5.398008e-01 7.633641e-01
3.330000e+10 5.428471e-01 7.614428e-01
3.340000e+10 5.458783e-01 7.595147e-01
3.350000e+10 5.488944e-01 7.575799e-01
3.360000e+10 5.518954e-01 7.556384e-01
3.370000e+10 5.548815e-01 7.536904e-01
3.380000e+10 5.578525e-01 7.517359e-01
3.390000e+10 5.608087e-01 7.497751e-01
3.400000e+10 5.637499e-01 7.478081e-01
3.410000e+10 5.666764e-01 7.458350e-01
3.420000e+10 5.695881e-01 7.438557e-01
3.430000e+10 5.724851e-01 7.418706e-01
3.440000e+10 5.753674e-01 7.398795e-01
3.450000e+10 5.782351e-01 7.378827e-01
3.460000e+10 5.810882e-01 7.358802e-01
3.470000e+10 5.839269e-01 7.338720e-01
3.480000e+10 5.867510e-01 7.318584e-01
3.490000e+10 5.895608e-01 7.298393e-01
3.500000e+10 5.923562e-01 7.278148e-01
3.510000e+10 5.951374e-01 7.257850e-01
3.520000e+10 5.979043e-01 7.237501e-01
3.530000e+10 6.006570e-01 7.217100e-01
3.540000e+10 6.033955e-01 7.196648e-01
3.550000e+10 6.061200e-01 7.176147e-01
3.560000e+10 6.088305e-01 7.155596e-01
3.570000e+10 6.115270e-01 7.134997e-01
3.580000e+10 6.142096e-01 7.114350e-01
3.590000e+10 6.168783e-01 7.093656e-01
3.600000e+10 6.195332e-01 7.072915e-01
3.610000e+10 6.221743e-01 7.052128e-01
3.620000e+10 6.248017e-01 7.031296e-01
3.630000e+10 6.274155e-01 7.010419e-01
3.640000e+10 6.300157e-01 6.989498e-01
3.650000e+10 6.326023e-01 6.968533e-01
3.660000e+10 6.351754e-01 6.947525e-01
3.670000e+10 6.377350e-01 6.926474e-01
3.680000e+10 6.402813e-01 6.905382e-01
3.690000e+10 6.428141e-01 6.884247e-01
3.700000e+10 6.453337e-01 6.863072e-01
3.710000e+10 6.478399e-01 6.841855e-01
3.720000e+10 6.503330e-01 6.820599e-01
3.730000e+10 6.528128e-01 6.799303e-01
3.740000e+10 6.552795e-01 6.777967e-01
3.750000e+10 6.577330e-01 6.756593e-01
3.760000e+10 6.601735e-01 6.735180e-01
3.770000e+10 6.626010e-01 6.713729e-01
3.780000e+10 6.650154e-01 6.692240e-01
3.790000e+10 6.674169e-01 6.670714e-01
3.800000e+10 6.698055e-01 6.649152e-01
3.810000e+10 6.721811e-01 6.627552e-01
3.820000e+10 6.745439e-01 6.605917e-01
3.830000e+10 6.768938e-01 6.584247e-01
3.840000e+10 6.792309e-01 6.562541e-01
3.850000e+10 6.815552e-01 6.540800e-01
3.860000e+10 6.838667e-01 6.519025e-01
3.870000e+10 6.861655e-01 6.497216e-01
3.880000e+10 6.884516e-01 6.475374e-01
3.890000e+10 6.907250e-01 6.453498e-01
3.900000e+10 6.929857e-01 6.431590e-01
3.910000e+10 6.952338e-01 6.409650e-01
3.920000e+10 6.974692e-01 6.387678e-01
3.930000e+10 6.996920e-01 6.365675e-01
3.940000e+10 7.019022e-01 6.343642e-01
3.950000e+10 7.040998e-01 6.321579e-01
3.960000e+10 7.062849e-01 6.299486e-01
3.970000e+10 7.084575e-01 6.277364e-01
3.980000e+10 7.106175e-01 6.255213e-01
3.990000e+10 7.127650e-01 6.233035e-01
4.000000e+10 7.149001e-01 6.210830e-01
