#   Hz   S  RI   R   50
!
0.000000e+00 -9.359080e-01 0.000000e+00
1.000000e+08 -9.358044e-01 1.304791e-02
2.000000e+08 -9.354938e-01 2.609006e-02
3.000000e+08 -9.349764e-01 3.912069e-02
4.000000e+08 -9.342530e-01 5.213405e-02
5.000000e+08 -9.333243e-01 6.512444e-02
6.000000e+08 -9.321915e-01 7.808618e-02
7.000000e+08 -9.308558e-01 9.101364e-02
8.000000e+08 -9.293189e-01 1.039013e-01
9.000000e+08 -9.275826e-01 1.167435e-01
1.000000e+09 -9.256490e-01 1.295350e-01
1.100000e+09 -9.235204e-01 1.422705e-01
1.200000e+09 -9.211994e-01 1.549447e-01
1.300000e+09 -9.186888e-01 1.675527e-01
1.400000e+09 -9.159917e-01 1.800895e-01
1.500000e+09 -9.131114e-01 1.925504e-01
1.600000e+09 -9.100515e-01 2.049310e-01
1.700000e+09 -9.068157e-01 2.172269e-01
1.800000e+09 -9.034080e-01 2.294341e-01
1.900000e+09 -8.998324e-01 2.415488e-01
2.000000e+09 -8.960933e-01 2.535675e-01
2.100000e+09 -8.921952e-01 2.654870e-01
2.200000e+09 -8.881425e-01 2.773044e-01
2.300000e+09 -8.839399e-01 2.890171e-01
2.400000e+09 -8.795920e-01 3.006229e-01
2.500000e+09 -8.751037e-01 3.121197e-01
2.600000e+09 -8.704795e-01 3.235061e-01
2.700000e+09 -8.657242e-01 3.347807e-01
2.800000e+09 -8.608422e-01 3.459426e-01
2.900000e+09 -8.558381e-01 3.569911e-01
3.000000e+09 -8.507162e-01 3.679259e-01
3.100000e+09 -8.454806e-01 3.787470e-01
3.200000e+09 -8.401353e-01 3.894544e-01
3.300000e+09 -8.346839e-01 4.000485e-01
3.400000e+09 -8.291301e-01 4.105299e-01
3.500000e+09 -8.234771e-01 4.208993e-01
3.600000e+09 -8.177277e-01 4.311576e-01
3.700000e+09 -8.118849e-01 4.413055e-01
3.800000e+09 -8.059509e-01 4.513442e-01
3.900000e+09 -7.999280e-01 4.612744e-01
4.000000e+09 -7.938182e-01 4.710972e-01
4.100000e+09 -7.876232e-01 4.808134e-01
4.200000e+09 -7.813444e-01 4.904238e-01
4.300000e+09 -7.749831e-01 4.999290e-01
4.400000e+09 -7.685406e-01 5.093296e-01
4.500000e+09 -7.620178e-01 5.186260e-01
4.600000e+09 -7.554155e-01 5.278184e-01
4.700000e+09 -7.487347e-01 5.369068e-01
4.800000e+09 -7.419760e-01 5.458910e-01
4.900000e+09 -7.351403e-01 5.547707e-01
5.000000e+09 -7.282283e-01 5.635455e-01
5.100000e+09 -7.212410e-01 5.722146e-01
5.200000e+09 -7.141791e-01 5.807772e-01
5.300000e+09 -7.070437e-01 5.892325e-01
5.400000e+09 -6.998360e-01 5.975792e-01
5.500000e+09 -6.925572e-01 6.058163e-01
5.600000e+09 -6.852089e-01 6.139426e-01
5.700000e+09 -6.777926e-01 6.219568e-01
5.800000e+09 -6.703101e-01 6.298577e-01
5.900000e+09 -6.627633e-01 6.376441e-01
6.000000e+09 -6.551545e-01 6.453148e-01
6.100000e+09 -6.474859e-01 6.528687e-01
6.200000e+09 -6.397598e-01 6.603048e-01
6.300000e+09 -6.319790e-01 6.676224e-01
6.400000e+09 -6.241461e-01 6.748206e-01
6.500000e+09 -6.162639e-01 6.818990e-01
6.600000e+09 -6.083352e-01 6.888573e-01
6.700000e+09 -6.003629e-01 6.956953e-01
6.800000e+09 -5.923500e-01 7.024129e-01
6.900000e+09 -5.842993e-01 7.090106e-01
7.000000e+09 -5.762137e-01 7.154886e-01
7.100000e+09 -5.680960e-01 7.218477e-01
7.200000e+09 -5.599490e-01 7.280886e-01
7.300000e+09 -5.517752e-01 7.342123e-01
7.400000e+09 -5.435771e-01 7.402200e-01
7.500000e+09 -5.353571e-01 7.461128e-01
7.600000e+09 -5.271173e-01 7.518921e-01
7.700000e+09 -5.188597e-01 7.575594e-01
7.800000e+09 -5.105862e-01 7.631162e-01
7.900000e+09 -5.022984e-01 7.685640e-01
8.000000e+09 -4.939977e-01 7.739043e-01
8.100000e+09 -4.856855e-01 7.791387e-01
8.200000e+09 -4.773629e-01 7.842686e-01
8.300000e+09 -4.690309e-01 7.892956e-01
8.400000e+09 -4.606903e-01 7.942209e-01
8.500000e+09 -4.523419e-01 7.990457e-01
8.600000e+09 -4.439862e-01 8.037714e-01
8.700000e+09 -4.356238e-01 8.083989e-01
8.800000e+09 -4.272551e-01 8.129291e-01
8.900000e+09 -4.188807e-01 8.173628e-01
9.000000e+09 -4.105008e-01 8.217008e-01
9.100000e+09 -4.021160e-01 8.259435e-01
9.200000e+09 -3.937266e-01 8.300914e-01
9.300000e+09 -3.853332e-01 8.341448e-01
9.400000e+09 -3.769362e-01 8.381040e-01
9.500000e+09 -3.685364e-01 8.419691e-01
9.600000e+09 -3.601343e-01 8.457403e-01
9.700000e+09 -3.517307e-01 8.494175e-01
9.800000e+09 -3.433266e-01 8.530008e-01
9.900000e+09 -3.349228e-01 8.564902e-01
1.000000e+10 -3.265206e-01 8.598858e-01
1.010000e+10 -3.181210e-01 8.631875e-01
1.020000e+10 -3.097254e-01 8.663956e-01
1.030000e+10 -3.013350e-01 8.695101e-01
1.040000e+10 -2.929513e-01 8.725313e-01
1.050000e+10 -2.845758e-01 8.754596e-01
1.060000e+10 -2.762100e-01 8.782953e-01
1.070000e+10 -2.678554e-01 8.810391e-01
1.080000e+10 -2.595136e-01 8.836915e-01
1.090000e+10 -2.511862e-01 8.862533e-01
1.100000e+10 -2.428747e-01 8.887255e-01
1.110000e+10 -2.345805e-01 8.911089e-01
1.120000e+10 -2.263052e-01 8.934047e-01
1.130000e+10 -2.180500e-01 8.956142e-01
1.140000e+10 -2.098163e-01 8.977384e-01
1.150000e+10 -2.016052e-01 8.997789e-01
1.160000e+10 -1.934178e-01 9.017370e-01
1.170000e+10 -1.852550e-01 9.036142e-01
1.180000e+10 -1.771178e-01 9.054120e-01
1.190000e+10 -1.690068e-01 9.071318e-01
1.200000e+10 -1.609225e-01 9.087753e-01
1.210000e+10 -1.528656e-01 9.103438e-01
1.220000e+10 -1.448364e-01 9.118387e-01
1.230000e+10 -1.368351e-01 9.132616e-01
1.240000e+10 -1.288619e-01 9.146138e-01
1.250000e+10 -1.209168e-01 9.158964e-01
1.260000e+10 -1.130000e-01 9.171107e-01
1.270000e+10 -1.051113e-01 9.182578e-01
1.280000e+10 -9.725065e-02 9.193386e-01
1.290000e+10 -8.941793e-02 9.203541e-01
1.300000e+10 -8.161300e-02 9.213051e-01
1.310000e+10 -7.383571e-02 9.221923e-01
1.320000e+10 -6.608595e-02 9.230163e-01
1.330000e+10 -5.836361e-02 9.237777e-01
1.340000e+10 -5.066865e-02 9.244768e-01
1.350000e+10 -4.300105e-02 9.251141e-01
1.360000e+10 -3.536085e-02 9.256900e-01
1.370000e+10 -2.774819e-02 9.262046e-01
1.380000e+10 -2.016324e-02 9.266583e-01
1.390000e+10 -1.260626e-02 9.270513e-01
1.400000e+10 -5.077584e-03 9.273838e-01
1.410000e+10 2.422386e-03 9.276561e-01
1.420000e+10 9.893176e-03 9.278684e-01
1.430000e+10 1.733425e-02 9.280210e-01
1.440000e+10 2.474502e-02 9.281142e-01
1.450000e+10 3.212483e-02 9.281485e-01
1.460000e+10 3.947302e-02 9.281243e-01
1.470000e+10 4.678887e-02 9.280421e-01
1.480000e+10 5.407168e-02 9.279025e-01
1.490000e+10 6.132070e-02 9.277061e-01
1.500000e+10 6.853524e-02 9.274538e-01
1.510000e+10 7.571459e-02 9.271462e-01
1.520000e+10 8.285810e-02 9.267843e-01
1.530000e+10 8.996515e-02 9.263691e-01
1.540000e+10 9.703519e-02 9.259015e-01
1.550000e+10 1.040677e-01 9.253826e-01
1.560000e+10 1.110623e-01 9.248134e-01
1.570000e+10 1.180186e-01 9.241952e-01
1.580000e+10 1.249364e-01 9.235291e-01
1.590000e+10 1.318154e-01 9.228161e-01
1.600000e+10 1.386556e-01 9.220575e-01
1.610000e+10 1.454569e-01 9.212544e-01
1.620000e+10 1.522194e-01 9.204079e-01
1.630000e+10 1.589433e-01 9.195190e-01
1.640000e+10 1.656288e-01 9.185888e-01
1.650000e+10 1.722761e-01 9.176182e-01
1.660000e+10 1.788855e-01 9.166082e-01
1.670000e+10 1.854574e-01 9.155595e-01
1.680000e+10 1.919923e-01 9.144729e-01
1.690000e+10 1.984904e-01 9.133491e-01
1.700000e+10 2.049523e-01 9.121887e-01
1.710000e+10 2.113783e-01 9.109921e-01
1.720000e+10 2.177690e-01 9.097599e-01
1.730000e+10 2.241245e-01 9.084924e-01
1.740000e+10 2.304454e-01 9.071899e-01
1.750000e+10 2.367319e-01 9.058526e-01
1.760000e+10 2.429842e-01 9.044809e-01
1.770000e+10 2.492026e-01 9.030747e-01
1.780000e+10 2.553873e-01 9.016343e-01
1.790000e+10 2.615382e-01 9.001598e-01
1.800000e+10 2.676555e-01 8.986513e-01
1.810000e+10 2.737391e-01 8.971088e-01
1.820000e+10 2.797888e-01 8.955325e-01
1.830000e+10 2.858045e-01 8.939225e-01
1.840000e+10 2.917861e-01 8.922790e-01
1.850000e+10 2.977331e-01 8.906022e-01
1.860000e+10 3.036454e-01 8.888923e-01
1.870000e+10 3.095226e-01 8.871496e-01
1.880000e+10 3.153644e-01 8.853746e-01
1.890000e+10 3.211703e-01 8.835675e-01
1.900000e+10 3.269401e-01 8.817290e-01
1.910000e+10 3.326734e-01 8.798594e-01
1.920000e+10 3.383698e-01 8.779595e-01
1.930000e+10 3.440291e-01 8.760299e-01
1.940000e+10 3.496509e-01 8.740712e-01
1.950000e+10 3.552351e-01 8.720843e-01
1.960000e+10 3.607815e-01 8.700699e-01
1.970000e+10 3.662900e-01 8.680288e-01
1.980000e+10 3.717605e-01 8.659618e-01
1.990000e+10 3.771930e-01 8.638698e-01
2.000000e+10 3.825878e-01 8.617537e-01
2.010000e+10 3.879448e-01 8.596143e-01
2.020000e+10 3.932643e-01 8.574523e-01
2.030000e+10 3.985467e-01 8.552685e-01
2.040000e+10 4.037922e-01 8.530638e-01
2.050000e+10 4.090013e-01 8.508388e-01
2.060000e+10 4.141743e-01 8.485941e-01
2.070000e+10 4.193118e-01 8.463303e-01
2.080000e+10 4.244143e-01 8.440480e-01
2.090000e+10 4.294822e-01 8.417476e-01
2.100000e+10 4.345161e-01 8.394295e-01
2.110000e+10 4.395166e-01 8.370940e-01
2.120000e+10 4.444842e-01 8.347413e-01
2.130000e+10 4.494192e-01 8.323717e-01
2.140000e+10 4.543223e-01 8.299853e-01
2.150000e+10 4.591938e-01 8.275821e-01
2.160000e+10 4.640342e-01 8.251621e-01
2.170000e+10 4.688436e-01 8.227255e-01
2.180000e+10 4.736225e-01 8.202720e-01
2.190000e+10 4.783711e-01 8.178016e-01
2.200000e+10 4.830894e-01 8.153143e-01
2.210000e+10 4.877776e-01 8.128100e-01
2.220000e+10 4.924356e-01 8.102886e-01
2.230000e+10 4.970636e-01 8.077500e-01
2.240000e+10 5.016613e-01 8.051942e-01
2.250000e+10 5.062287e-01 8.026212e-01
2.260000e+10 5.107655e-01 8.000310e-01
2.270000e+10 5.152715e-01 7.974238e-01
2.280000e+10 5.197466e-01 7.947997e-01
2.290000e+10 5.241904e-01 7.921589e-01
2.300000e+10 5.286027e-01 7.895016e-01
2.310000e+10 5.329833e-01 7.868282e-01
2.320000e+10 5.373317e-01 7.841391e-01
2.330000e+10 5.416479e-01 7.814347e-01
2.340000e+10 5.459316e-01 7.787155e-01
2.350000e+10 5.501827e-01 7.759820e-01
2.360000e+10 5.544009e-01 7.732348e-01
2.370000e+10 5.585864e-01 7.704745e-01
2.380000e+10 5.627390e-01 7.677019e-01
2.390000e+10 5.668588e-01 7.649175e-01
2.400000e+10 5.709459e-01 7.621219e-01
2.410000e+10 5.750006e-01 7.593160e-01
2.420000e+10 5.790230e-01 7.565003e-01
2.430000e+10 5.830135e-01 7.536754e-01
2.440000e+10 5.869725e-01 7.508420e-01
2.450000e+10 5.909003e-01 7.480005e-01
2.460000e+10 5.947974e-01 7.451516e-01
2.470000e+10 5.986644e-01 7.422956e-01
2.480000e+10 6.025019e-01 7.394330e-01
2.490000e+10 6.063103e-01 7.365640e-01
2.500000e+10 6.100902e-01 7.336890e-01
2.510000e+10 6.138423e-01 7.308081e-01
2.520000e+10 6.175670e-01 7.279213e-01
2.530000e+10 6.212651e-01 7.250289e-01
2.540000e+10 6.249369e-01 7.221306e-01
2.550000e+10 6.285830e-01 7.192265e-01
2.560000e+10 6.322038e-01 7.163165e-01
2.570000e+10 6.357997e-01 7.134002e-01
2.580000e+10 6.393711e-01 7.104776e-01
2.590000e+10 6.429181e-01 7.075484e-01
2.600000e+10 6.464411e-01 7.046123e-01
2.610000e+10 6.499400e-01 7.016691e-01
2.620000e+10 6.534150e-01 6.987185e-01
2.630000e+10 6.568660e-01 6.957602e-01
2.640000e+10 6.602930e-01 6.927940e-01
2.650000e+10 6.636959e-01 6.898198e-01
2.660000e+10 6.670743e-01 6.868374e-01
2.670000e+10 6.704282e-01 6.838466e-01
2.680000e+10 6.737571e-01 6.808476e-01
2.690000e+10 6.770609e-01 6.778403e-01
2.700000e+10 6.803391e-01 6.748248e-01
2.710000e+10 6.835915e-01 6.718013e-01
2.720000e+10 6.868177e-01 6.687700e-01
2.730000e+10 6.900174e-01 6.657313e-01
2.740000e+10 6.931903e-01 6.626856e-01
2.750000e+10 6.963362e-01 6.596333e-01
2.760000e+10 6.994549e-01 6.565748e-01
2.770000e+10 7.025463e-01 6.535109e-01
2.780000e+10 7.056102e-01 6.504419e-01
2.790000e+10 7.086467e-01 6.473687e-01
2.800000e+10 7.116558e-01 6.442918e-01
2.810000e+10 7.146378e-01 6.412118e-01
2.820000e+10 7.175927e-01 6.381294e-01
2.830000e+10 7.205210e-01 6.350453e-01
2.840000e+10 7.234230e-01 6.319599e-01
2.850000e+10 7.262992e-01 6.288739e-01
2.860000e+10 7.291500e-01 6.257878e-01
2.870000e+10 7.319761e-01 6.227019e-01
2.880000e+10 7.347780e-01 6.196167e-01
2.890000e+10 7.375565e-01 6.165324e-01
2.900000e+10 7.403121e-01 6.134493e-01
2.910000e+10 7.430456e-01 6.103674e-01
2.920000e+10 7.457577e-01 6.072868e-01
2.930000e+10 7.484490e-01 6.042075e-01
2.940000e+10 7.511201e-01 6.011292e-01
2.950000e+10 7.537716e-01 5.980518e-01
2.960000e+10 7.564042e-01 5.949750e-01
2.970000e+10 7.590182e-01 5.918984e-01
2.980000e+10 7.616140e-01 5.888216e-01
2.990000e+10 7.641921e-01 5.857442e-01
3.000000e+10 7.667526e-01 5.826656e-01
3.010000e+10 7.692956e-01 5.795854e-01
3.020000e+10 7.718212e-01 5.765031e-01
3.030000e+10 7.743294e-01 5.734181e-01
3.040000e+10 7.768200e-01 5.703301e-01
3.050000e+10 7.792928e-01 5.672386e-01
3.060000e+10 7.817474e-01 5.641432e-01
3.070000e+10 7.841836e-01 5.610436e-01
3.080000e+10 7.866009e-01 5.579397e-01
3.090000e+10 7.889987e-01 5.548312e-01
3.100000e+10 7.913766e-01 5.517182e-01
3.110000e+10 7.937341e-01 5.486006e-01
3.120000e+10 7.960705e-01 5.454786e-01
3.130000e+10 7.983854e-01 5.423526e-01
3.140000e+10 8.006782e-01 5.392228e-01
3.150000e+10 8.029485e-01 5.360896e-01
3.160000e+10 8.051958e-01 5.329538e-01
3.170000e+10 8.074199e-01 5.298158e-01
3.180000e+10 8.096205e-01 5.266763e-01
3.190000e+10 8.117975e-01 5.235362e-01
3.200000e+10 8.139507e-01 5.203961e-01
3.210000e+10 8.160803e-01 5.172569e-01
3.220000e+10 8.181865e-01 5.141194e-01
3.230000e+10 8.202695e-01 5.109844e-01
3.240000e+10 8.223296e-01 5.078526e-01
3.250000e+10 8.243676e-01 5.047249e-01
3.260000e+10 8.263839e-01 5.016018e-01
3.270000e+10 8.283792e-01 4.984839e-01
3.280000e+10 8.303545e-01 4.953717e-01
3.290000e+10 8.323104e-01 4.922656e-01
3.300000e+10 8.342479e-01 4.891658e-01
3.310000e+10 8.361679e-01 4.860724e-01
3.320000e+10 8.380714e-01 4.829856e-01
3.330000e+10 8.399594e-01 4.799051e-01
3.340000e+10 8.418326e-01 4.768306e-01
3.350000e+10 8.436920e-01 4.737619e-01
3.360000e+10 8.455383e-01 4.706983e-01
3.370000e+10 8.473722e-01 4.676393e-01
3.380000e+10 8.491944e-01 4.645841e-01
3.390000e+10 8.510053e-01 4.615320e-01
3.400000e+10 8.528052e-01 4.584821e-01
3.410000e+10 8.545944e-01 4.554335e-01
3.420000e+10 8.563729e-01 4.523853e-01
3.430000e+10 8.581406e-01 4.493366e-01
3.440000e+10 8.598972e-01 4.462865e-01
3.450000e+10 8.616423e-01 4.432341e-01
3.460000e+10 8.633755e-01 4.401788e-01
3.470000e+10 8.650960e-01 4.371198e-01
3.480000e+10 8.668031e-01 4.340566e-01
3.490000e+10 8.684958e-01 4.309887e-01
3.500000e+10 8.701734e-01 4.279160e-01
3.510000e+10 8.718346e-01 4.248383e-01
3.520000e+10 8.734786e-01 4.217556e-01
3.530000e+10 8.751043e-01 4.186682e-01
3.540000e+10 8.767106e-01 4.155765e-01
3.550000e+10 8.782967e-01 4.124810e-01
3.560000e+10 8.798616e-01 4.093826e-01
3.570000e+10 8.814046e-01 4.062820e-01
3.580000e+10 8.829251e-01 4.031804e-01
3.590000e+10 8.844225e-01 4.000788e-01
3.600000e+10 8.858966e-01 3.969785e-01
3.610000e+10 8.873472e-01 3.938808e-01
3.620000e+10 8.887745e-01 3.907871e-01
3.630000e+10 8.901785e-01 3.876986e-01
3.640000e+10 8.915600e-01 3.846166e-01
3.650000e+10 8.929194e-01 3.815426e-01
3.660000e+10 8.942578e-01 3.784775e-01
3.670000e+10 8.955761e-01 3.754225e-01
3.680000e+10 8.968756e-01 3.723784e-01
3.690000e+10 8.981576e-01 3.693460e-01
3.700000e+10 8.994237e-01 3.663259e-01
3.710000e+10 9.006753e-01 3.633182e-01
3.720000e+10 9.019141e-01 3.603232e-01
3.730000e+10 9.031417e-01 3.573405e-01
3.740000e+10 9.043597e-01 3.543699e-01
3.750000e+10 9.055697e-01 3.514106e-01
3.760000e+10 9.067731e-01 3.484618e-01
3.770000e+10 9.079713e-01 3.455224e-01
3.780000e+10 9.091653e-01 3.425910e-01
3.790000e+10 9.103562e-01 3.396662e-01
3.800000e+10 9.115446e-01 3.367464e-01
3.810000e+10 9.127310e-01 3.338297e-01
3.820000e+10 9.139155e-01 3.309144e-01
3.830000e+10 9.150982e-01 3.279986e-01
3.840000e+10 9.162785e-01 3.250806e-01
3.850000e+10 9.174559e-01 3.221584e-01
3.860000e+10 9.186292e-01 3.192306e-01
3.870000e+10 9.197974e-01 3.162954e-01
3.880000e+10 9.209589e-01 3.133517e-01
3.890000e+10 9.221119e-01 3.103983e-01
3.900000e+10 9.232547e-01 3.074344e-01
3.910000e+10 9.243851e-01 3.044596e-01
3.920000e+10 9.255009e-01 3.014735e-01
3.930000e+10 9.266001e-01 2.984765e-01
3.940000e+10 9.276805e-01 2.954689e-01
3.950000e+10 9.287398e-01 2.924517e-01
3.960000e+10 9.297761e-01 2.894261e-01
3.970000e+10 9.307876e-01 2.863936e-01
3.980000e+10 9.317727e-01 2.833562e-01
3.990000e+10 9.327300e-01 2.803160e-01
4.000000e+10 9.336585e-01 2.772754e-01
