#   Hz   S  RI   R   50
!
0.000000e+00 -9.759713e-01 0.000000e+00
1.000000e+08 -9.758659e-01 1.324909e-02
2.000000e+08 -9.755501e-01 2.649132e-02
3.000000e+08 -9.750245e-01 3.971988e-02
4.000000e+08 -9.742900e-01 5.292798e-02
5.000000e+08 -9.733481e-01 6.610893e-02
6.000000e+08 -9.722004e-01 7.925613e-02
7.000000e+08 -9.708493e-01 9.236312e-02
8.000000e+08 -9.692973e-01 1.054236e-01
9.000000e+08 -9.675474e-01 1.184315e-01
1.000000e+09 -9.656028e-01 1.313810e-01
1.100000e+09 -9.634674e-01 1.442664e-01
1.200000e+09 -9.611452e-01 1.570826e-01
1.300000e+09 -9.586404e-01 1.698246e-01
1.400000e+09 -9.559578e-01 1.824880e-01
1.500000e+09 -9.531023e-01 1.950686e-01
1.600000e+09 -9.500788e-01 2.075630e-01
1.700000e+09 -9.468926e-01 2.199679e-01
1.800000e+09 -9.435489e-01 2.322807e-01
1.900000e+09 -9.400531e-01 2.444995e-01
2.000000e+09 -9.364102e-01 2.566225e-01
2.100000e+09 -9.326256e-01 2.686487e-01
2.200000e+09 -9.287039e-01 2.805776e-01
2.300000e+09 -9.246499e-01 2.924088e-01
2.400000e+09 -9.204678e-01 3.041427e-01
2.500000e+09 -9.161617e-01 3.157798e-01
2.600000e+09 -9.117349e-01 3.273210e-01
2.700000e+09 -9.071907e-01 3.387672e-01
2.800000e+09 -9.025316e-01 3.501196e-01
2.900000e+09 -8.977598e-01 3.613795e-01
3.000000e+09 -8.928769e-01 3.725478e-01
3.100000e+09 -8.878843e-01 3.836256e-01
3.200000e+09 -8.827827e-01 3.946138e-01
3.300000e+09 -8.775729e-01 4.055128e-01
3.400000e+09 -8.722549e-01 4.163230e-01
3.500000e+09 -8.668289e-01 4.270441e-01
3.600000e+09 -8.612948e-01 4.376757e-01
3.700000e+09 -8.556525e-01 4.482168e-01
3.800000e+09 -8.499019e-01 4.586663e-01
3.900000e+09 -8.440429e-01 4.690223e-01
4.000000e+09 -8.380759e-01 4.792828e-01
4.100000e+09 -8.320013e-01 4.894456e-01
4.200000e+09 -8.258198e-01 4.995079e-01
4.300000e+09 -8.195327e-01 5.094672e-01
4.400000e+09 -8.131415e-01 5.193204e-01
4.500000e+09 -8.066481e-01 5.290648e-01
4.600000e+09 -8.000548e-01 5.386974e-01
4.700000e+09 -7.933645e-01 5.482155e-01
4.800000e+09 -7.865803e-01 5.576167e-01
4.900000e+09 -7.797055e-01 5.668987e-01
5.000000e+09 -7.727441e-01 5.760597e-01
5.100000e+09 -7.656998e-01 5.850980e-01
5.200000e+09 -7.585768e-01 5.940125e-01
5.300000e+09 -7.513792e-01 6.028027e-01
5.400000e+09 -7.441112e-01 6.114681e-01
5.500000e+09 -7.367768e-01 6.200091e-01
5.600000e+09 -7.293798e-01 6.284260e-01
5.700000e+09 -7.219239e-01 6.367199e-01
5.800000e+09 -7.144125e-01 6.448920e-01
5.900000e+09 -7.068485e-01 6.529436e-01
6.000000e+09 -6.992347e-01 6.608763e-01
6.100000e+09 -6.915734e-01 6.686919e-01
6.200000e+09 -6.838664e-01 6.763920e-01
6.300000e+09 -6.761153e-01 6.839784e-01
6.400000e+09 -6.683214e-01 6.914524e-01
6.500000e+09 -6.604855e-01 6.988156e-01
6.600000e+09 -6.526085e-01 7.060690e-01
6.700000e+09 -6.446908e-01 7.132135e-01
6.800000e+09 -6.367328e-01 7.202497e-01
6.900000e+09 -6.287349e-01 7.271778e-01
7.000000e+09 -6.206974e-01 7.339980e-01
7.100000e+09 -6.126208e-01 7.407098e-01
7.200000e+09 -6.045057e-01 7.473127e-01
7.300000e+09 -5.963528e-01 7.538060e-01
7.400000e+09 -5.881632e-01 7.601888e-01
7.500000e+09 -5.799381e-01 7.664602e-01
7.600000e+09 -5.716791e-01 7.726190e-01
7.700000e+09 -5.633880e-01 7.786642e-01
7.800000e+09 -5.550670e-01 7.845950e-01
7.900000e+09 -5.467183e-01 7.904104e-01
8.000000e+09 -5.383446e-01 7.961100e-01
8.100000e+09 -5.299486e-01 8.016933e-01
8.200000e+09 -5.215333e-01 8.071603e-01
8.300000e+09 -5.131016e-01 8.125111e-01
8.400000e+09 -5.046566e-01 8.177463e-01
8.500000e+09 -4.962011e-01 8.228668e-01
8.600000e+09 -4.877380e-01 8.278736e-01
8.700000e+09 -4.792701e-01 8.327682e-01
8.800000e+09 -4.707998e-01 8.375521e-01
8.900000e+09 -4.623294e-01 8.422273e-01
9.000000e+09 -4.538609e-01 8.467957e-01
9.100000e+09 -4.453958e-01 8.512595e-01
9.200000e+09 -4.369358e-01 8.556206e-01
9.300000e+09 -4.284818e-01 8.598812e-01
9.400000e+09 -4.200346e-01 8.640434e-01
9.500000e+09 -4.115948e-01 8.681091e-01
9.600000e+09 -4.031628e-01 8.720799e-01
9.700000e+09 -3.947387e-01 8.759575e-01
9.800000e+09 -3.863225e-01 8.797431e-01
9.900000e+09 -3.779142e-01 8.834378e-01
1.000000e+10 -3.695136e-01 8.870424e-01
1.010000e+10 -3.611208e-01 8.905576e-01
1.020000e+10 -3.527357e-01 8.939836e-01
1.030000e+10 -3.443585e-01 8.973208e-01
1.040000e+10 -3.359894e-01 9.005691e-01
1.050000e+10 -3.276289e-01 9.037284e-01
1.060000e+10 -3.192775e-01 9.067985e-01
1.070000e+10 -3.109363e-01 9.097792e-01
1.080000e+10 -3.026062e-01 9.126704e-01
1.090000e+10 -2.942885e-01 9.154719e-01
1.100000e+10 -2.859847e-01 9.181836e-01
1.110000e+10 -2.776963e-01 9.208058e-01
1.120000e+10 -2.694250e-01 9.233388e-01
1.130000e+10 -2.611728e-01 9.257830e-01
1.140000e+10 -2.529413e-01 9.281392e-01
1.150000e+10 -2.447324e-01 9.304083e-01
1.160000e+10 -2.365479e-01 9.325915e-01
1.170000e+10 -2.283895e-01 9.346902e-01
1.180000e+10 -2.202586e-01 9.367059e-01
1.190000e+10 -2.121567e-01 9.386404e-01
1.200000e+10 -2.040849e-01 9.404953e-01
1.210000e+10 -1.960442e-01 9.422728e-01
1.220000e+10 -1.880352e-01 9.439746e-01
1.230000e+10 -1.800586e-01 9.456027e-01
1.240000e+10 -1.721146e-01 9.471590e-01
1.250000e+10 -1.642033e-01 9.486453e-01
1.260000e+10 -1.563245e-01 9.500633e-01
1.270000e+10 -1.484781e-01 9.514145e-01
1.280000e+10 -1.406636e-01 9.527002e-01
1.290000e+10 -1.328805e-01 9.539216e-01
1.300000e+10 -1.251285e-01 9.550797e-01
1.310000e+10 -1.174071e-01 9.561752e-01
1.320000e+10 -1.097156e-01 9.572087e-01
1.330000e+10 -1.020539e-01 9.581806e-01
1.340000e+10 -9.442152e-02 9.590911e-01
1.350000e+10 -8.681845e-02 9.599404e-01
1.360000e+10 -7.924466e-02 9.607285e-01
1.370000e+10 -7.170033e-02 9.614554e-01
1.380000e+10 -6.418580e-02 9.621212e-01
1.390000e+10 -5.670159e-02 9.627257e-01
1.400000e+10 -4.924834e-02 9.632691e-01
1.410000e+10 -4.182687e-02 9.637516e-01
1.420000e+10 -3.443808e-02 9.641733e-01
1.430000e+10 -2.708297e-02 9.645348e-01
1.440000e+10 -1.976257e-02 9.648365e-01
1.450000e+10 -1.247795e-02 9.650793e-01
1.460000e+10 -5.230158e-03 9.652640e-01
1.470000e+10 1.979832e-03 9.653918e-01
1.480000e+10 9.151113e-03 9.654637e-01
1.490000e+10 1.628290e-02 9.654812e-01
1.500000e+10 2.337455e-02 9.654457e-01
1.510000e+10 3.042557e-02 9.653586e-01
1.520000e+10 3.743564e-02 9.652217e-01
1.530000e+10 4.440463e-02 9.650364e-01
1.540000e+10 5.133256e-02 9.648042e-01
1.550000e+10 5.821963e-02 9.645267e-01
1.560000e+10 6.506620e-02 9.642053e-01
1.570000e+10 7.187273e-02 9.638411e-01
1.580000e+10 7.863981e-02 9.634354e-01
1.590000e+10 8.536810e-02 9.629891e-01
1.600000e+10 9.205830e-02 9.625031e-01
1.610000e+10 9.871112e-02 9.619779e-01
1.620000e+10 1.053273e-01 9.614142e-01
1.630000e+10 1.119073e-01 9.608122e-01
1.640000e+10 1.184519e-01 9.601722e-01
1.650000e+10 1.249615e-01 9.594941e-01
1.660000e+10 1.314364e-01 9.587782e-01
1.670000e+10 1.378767e-01 9.580242e-01
1.680000e+10 1.442826e-01 9.572321e-01
1.690000e+10 1.506540e-01 9.564019e-01
1.700000e+10 1.569906e-01 9.555333e-01
1.710000e+10 1.632920e-01 9.546266e-01
1.720000e+10 1.695579e-01 9.536817e-01
1.730000e+10 1.757876e-01 9.526988e-01
1.740000e+10 1.819806e-01 9.516783e-01
1.750000e+10 1.881361e-01 9.506207e-01
1.760000e+10 1.942535e-01 9.495264e-01
1.770000e+10 2.003322e-01 9.483963e-01
1.780000e+10 2.063716e-01 9.472312e-01
1.790000e+10 2.123712e-01 9.460322e-01
1.800000e+10 2.183306e-01 9.448002e-01
1.810000e+10 2.242496e-01 9.435364e-01
1.820000e+10 2.301279e-01 9.422421e-01
1.830000e+10 2.359655e-01 9.409184e-01
1.840000e+10 2.417628e-01 9.395667e-01
1.850000e+10 2.475198e-01 9.381880e-01
1.860000e+10 2.532371e-01 9.367835e-01
1.870000e+10 2.589152e-01 9.353542e-01
1.880000e+10 2.645548e-01 9.339011e-01
1.890000e+10 2.701566e-01 9.324250e-01
1.900000e+10 2.757213e-01 9.309265e-01
1.910000e+10 2.812498e-01 9.294061e-01
1.920000e+10 2.867428e-01 9.278642e-01
1.930000e+10 2.922011e-01 9.263010e-01
1.940000e+10 2.976254e-01 9.247167e-01
1.950000e+10 3.030164e-01 9.231111e-01
1.960000e+10 3.083744e-01 9.214843e-01
1.970000e+10 3.137000e-01 9.198360e-01
1.980000e+10 3.189933e-01 9.181660e-01
1.990000e+10 3.242545e-01 9.164741e-01
2.000000e+10 3.294836e-01 9.147601e-01
2.010000e+10 3.346805e-01 9.130237e-01
2.020000e+10 3.398448e-01 9.112648e-01
2.030000e+10 3.449763e-01 9.094835e-01
2.040000e+10 3.500745e-01 9.076798e-01
2.050000e+10 3.551389e-01 9.058538e-01
2.060000e+10 3.601691e-01 9.040060e-01
2.070000e+10 3.651645e-01 9.021367e-01
2.080000e+10 3.701247e-01 9.002466e-01
2.090000e+10 3.750493e-01 8.983362e-01
2.100000e+10 3.799379e-01 8.964065e-01
2.110000e+10 3.847903e-01 8.944584e-01
2.120000e+10 3.896064e-01 8.924927e-01
2.130000e+10 3.943861e-01 8.905104e-01
2.140000e+10 3.991297e-01 8.885126e-01
2.150000e+10 4.038374e-01 8.865003e-01
2.160000e+10 4.085097e-01 8.844744e-01
2.170000e+10 4.131470e-01 8.824357e-01
2.180000e+10 4.177500e-01 8.803851e-01
2.190000e+10 4.223194e-01 8.783232e-01
2.200000e+10 4.268560e-01 8.762507e-01
2.210000e+10 4.313607e-01 8.741678e-01
2.220000e+10 4.358342e-01 8.720750e-01
2.230000e+10 4.402774e-01 8.699723e-01
2.240000e+10 4.446910e-01 8.678597e-01
2.250000e+10 4.490758e-01 8.657372e-01
2.260000e+10 4.534324e-01 8.636045e-01
2.270000e+10 4.577612e-01 8.614613e-01
2.280000e+10 4.620626e-01 8.593073e-01
2.290000e+10 4.663369e-01 8.571421e-01
2.300000e+10 4.705842e-01 8.549653e-01
2.310000e+10 4.748044e-01 8.527765e-01
2.320000e+10 4.789974e-01 8.505754e-01
2.330000e+10 4.831630e-01 8.483618e-01
2.340000e+10 4.873007e-01 8.461355e-01
2.350000e+10 4.914101e-01 8.438964e-01
2.360000e+10 4.954909e-01 8.416448e-01
2.370000e+10 4.995424e-01 8.393807e-01
2.380000e+10 5.035641e-01 8.371046e-01
2.390000e+10 5.075557e-01 8.348169e-01
2.400000e+10 5.115168e-01 8.325182e-01
2.410000e+10 5.154470e-01 8.302093e-01
2.420000e+10 5.193461e-01 8.278909e-01
2.430000e+10 5.232142e-01 8.255639e-01
2.440000e+10 5.270511e-01 8.232291e-01
2.450000e+10 5.308572e-01 8.208875e-01
2.460000e+10 5.346328e-01 8.185400e-01
2.470000e+10 5.383783e-01 8.161874e-01
2.480000e+10 5.420944e-01 8.138304e-01
2.490000e+10 5.457817e-01 8.114697e-01
2.500000e+10 5.494411e-01 8.091058e-01
2.510000e+10 5.530733e-01 8.067391e-01
2.520000e+10 5.566793e-01 8.043698e-01
2.530000e+10 5.602599e-01 8.019982e-01
2.540000e+10 5.638160e-01 7.996241e-01
2.550000e+10 5.673484e-01 7.972474e-01
2.560000e+10 5.708577e-01 7.948678e-01
2.570000e+10 5.743446e-01 7.924848e-01
2.580000e+10 5.778095e-01 7.900981e-01
2.590000e+10 5.812528e-01 7.877070e-01
2.600000e+10 5.846746e-01 7.853110e-01
2.610000e+10 5.880751e-01 7.829096e-01
2.620000e+10 5.914541e-01 7.805022e-01
2.630000e+10 5.948114e-01 7.780883e-01
2.640000e+10 5.981466e-01 7.756677e-01
2.650000e+10 6.014593e-01 7.732400e-01
2.660000e+10 6.047489e-01 7.708051e-01
2.670000e+10 6.080148e-01 7.683630e-01
2.680000e+10 6.112566e-01 7.659139e-01
2.690000e+10 6.144735e-01 7.634581e-01
2.700000e+10 6.176650e-01 7.609961e-01
2.710000e+10 6.208308e-01 7.585285e-01
2.720000e+10 6.239704e-01 7.560560e-01
2.730000e+10 6.270837e-01 7.535793e-01
2.740000e+10 6.301705e-01 7.510995e-01
2.750000e+10 6.332310e-01 7.486173e-01
2.760000e+10 6.362653e-01 7.461337e-01
2.770000e+10 6.392740e-01 7.436495e-01
2.780000e+10 6.422574e-01 7.411656e-01
2.790000e+10 6.452163e-01 7.386827e-01
2.800000e+10 6.481515e-01 7.362015e-01
2.810000e+10 6.510639e-01 7.337223e-01
2.820000e+10 6.539545e-01 7.312455e-01
2.830000e+10 6.568241e-01 7.287711e-01
2.840000e+10 6.596739e-01 7.262993e-01
2.850000e+10 6.625046e-01 7.238298e-01
2.860000e+10 6.653173e-01 7.213621e-01
2.870000e+10 6.681125e-01 7.188959e-01
2.880000e+10 6.708910e-01 7.164304e-01
2.890000e+10 6.736533e-01 7.139651e-01
2.900000e+10 6.763995e-01 7.114990e-01
2.910000e+10 6.791298e-01 7.090315e-01
2.920000e+10 6.818442e-01 7.065617e-01
2.930000e+10 6.845424e-01 7.040889e-01
2.940000e+10 6.872241e-01 7.016126e-01
2.950000e+10 6.898886e-01 6.991321e-01
2.960000e+10 6.925353e-01 6.966471e-01
2.970000e+10 6.951634e-01 6.941575e-01
2.980000e+10 6.977722e-01 6.916631e-01
2.990000e+10 7.003609e-01 6.891642e-01
3.000000e+10 7.029287e-01 6.866610e-01
3.010000e+10 7.054748e-01 6.841543e-01
3.020000e+10 7.079987e-01 6.816446e-01
3.030000e+10 7.104999e-01 6.791328e-01
3.040000e+10 7.129781e-01 6.766200e-01
3.050000e+10 7.154332e-01 6.741070e-01
3.060000e+10 7.178653e-01 6.715950e-01
3.070000e+10 7.202747e-01 6.690851e-01
3.080000e+10 7.226618e-01 6.665784e-01
3.090000e+10 7.250274e-01 6.640756e-01
3.100000e+10 7.273724e-01 6.615777e-01
3.110000e+10 7.296976e-01 6.590854e-01
3.120000e+10 7.320044e-01 6.565990e-01
3.130000e+10 7.342938e-01 6.541188e-01
3.140000e+10 7.365671e-01 6.516449e-01
3.150000e+10 7.388254e-01 6.491770e-01
3.160000e+10 7.410700e-01 6.467148e-01
3.170000e+10 7.433019e-01 6.442576e-01
3.180000e+10 7.455220e-01 6.418046e-01
3.190000e+10 7.477309e-01 6.393549e-01
3.200000e+10 7.499291e-01 6.369074e-01
3.210000e+10 7.521170e-01 6.344609e-01
3.220000e+10 7.542945e-01 6.320143e-01
3.230000e+10 7.564614e-01 6.295664e-01
3.240000e+10 7.586172e-01 6.271162e-01
3.250000e+10 7.607612e-01 6.246628e-01
3.260000e+10 7.628926e-01 6.222054e-01
3.270000e+10 7.650103e-01 6.197436e-01
3.280000e+10 7.671131e-01 6.172769e-01
3.290000e+10 7.691999e-01 6.148053e-01
3.300000e+10 7.712694e-01 6.123291e-01
3.310000e+10 7.733204e-01 6.098488e-01
3.320000e+10 7.753520e-01 6.073650e-01
3.330000e+10 7.773631e-01 6.048789e-01
3.340000e+10 7.793531e-01 6.023915e-01
3.350000e+10 7.813215e-01 5.999042e-01
3.360000e+10 7.832681e-01 5.974185e-01
3.370000e+10 7.851930e-01 5.949358e-01
3.380000e+10 7.870966e-01 5.924577e-01
3.390000e+10 7.889795e-01 5.899855e-01
3.400000e+10 7.908428e-01 5.875205e-01
3.410000e+10 7.926876e-01 5.850638e-01
3.420000e+10 7.945155e-01 5.826162e-01
3.430000e+10 7.963278e-01 5.801784e-01
3.440000e+10 7.981264e-01 5.777506e-01
3.450000e+10 7.999130e-01 5.753327e-01
3.460000e+10 8.016891e-01 5.729242e-01
3.470000e+10 8.034565e-01 5.705246e-01
3.480000e+10 8.052165e-01 5.681327e-01
3.490000e+10 8.069704e-01 5.657473e-01
3.500000e+10 8.087190e-01 5.633669e-01
3.510000e+10 8.104630e-01 5.609896e-01
3.520000e+10 8.122025e-01 5.586139e-01
3.530000e+10 8.139375e-01 5.562378e-01
3.540000e+10 8.156674e-01 5.538597e-01
3.550000e+10 8.173915e-01 5.514779e-01
3.560000e+10 8.191084e-01 5.490911e-01
3.570000e+10 8.208166e-01 5.466979e-01
3.580000e+10 8.225146e-01 5.442978e-01
3.590000e+10 8.242004e-01 5.418901e-01
3.600000e+10 8.258720e-01 5.394750e-01
3.610000e+10 8.275274e-01 5.370527e-01
3.620000e+10 8.291648e-01 5.346241e-01
3.630000e+10 8.307824e-01 5.321903e-01
3.640000e+10 8.323789e-01 5.297530e-01
3.650000e+10 8.339529e-01 5.273140e-01
3.660000e+10 8.355039e-01 5.248754e-01
3.670000e+10 8.370314e-01 5.224396e-01
3.680000e+10 8.385355e-01 5.200088e-01
3.690000e+10 8.400171e-01 5.175854e-01
3.700000e+10 8.414770e-01 5.151717e-01
3.710000e+10 8.429169e-01 5.127696e-01
3.720000e+10 8.443387e-01 5.103807e-01
3.730000e+10 8.457447e-01 5.080064e-01
3.740000e+10 8.471375e-01 5.056476e-01
3.750000e+10 8.485196e-01 5.033044e-01
3.760000e+10 8.498938e-01 5.009768e-01
3.770000e+10 8.512629e-01 4.986640e-01
3.780000e+10 8.526293e-01 4.963646e-01
3.790000e+10 8.539952e-01 4.940769e-01
3.800000e+10 8.553626e-01 4.917986e-01
3.810000e+10 8.567327e-01 4.895272e-01
3.820000e+10 8.581066e-01 4.872598e-01
3.830000e+10 8.594843e-01 4.849934e-01
3.840000e+10 8.608656e-01 4.827250e-01
3.850000e+10 8.622494e-01 4.804516e-01
3.860000e+10 8.636342e-01 4.781706e-01
3.870000e+10 8.650178e-01 4.758796e-01
3.880000e+10 8.663975e-01 4.735766e-01
3.890000e+10 8.677704e-01 4.712604e-01
3.900000e+10 8.691330e-01 4.689304e-01
3.910000e+10 8.704821e-01 4.665864e-01
3.920000e+10 8.718141e-01 4.642293e-01
3.930000e+10 8.731259e-01 4.618605e-01
3.940000e+10 8.744143e-01 4.594822e-01
3.950000e+10 8.756769e-01 4.570971e-01
3.960000e+10 8.769118e-01 4.547087e-01
3.970000e+10 8.781177e-01 4.523206e-01
3.980000e+10 8.792940e-01 4.499368e-01
3.990000e+10 8.804413e-01 4.475615e-01
4.000000e+10 8.815606e-01 4.451988e-01
