#   Hz   S  RI   R   50
!
0.000000e+00 -9.382805e-01 0.000000e+00
1.000000e+08 -9.382015e-01 1.120498e-02
2.000000e+08 -9.379649e-01 2.240567e-02
3.000000e+08 -9.375708e-01 3.359783e-02
4.000000e+08 -9.370199e-01 4.477721e-02
5.000000e+08 -9.363129e-01 5.593963e-02
6.000000e+08 -9.354506e-01 6.708097e-02
7.000000e+08 -9.344344e-01 7.819720e-02
8.000000e+08 -9.332655e-01 8.928435e-02
9.000000e+08 -9.319454e-01 1.003386e-01
1.000000e+09 -9.304758e-01 1.113562e-01
1.100000e+09 -9.288587e-01 1.223335e-01
1.200000e+09 -9.270959e-01 1.332671e-01
1.300000e+09 -9.251896e-01 1.441536e-01
1.400000e+09 -9.231422e-01 1.549900e-01
1.500000e+09 -9.209559e-01 1.657731e-01
1.600000e+09 -9.186332e-01 1.765001e-01
1.700000e+09 -9.161768e-01 1.871684e-01
1.800000e+09 -9.135891e-01 1.977754e-01
1.900000e+09 -9.108729e-01 2.083188e-01
2.000000e+09 -9.080310e-01 2.187964e-01
2.100000e+09 -9.050660e-01 2.292062e-01
2.200000e+09 -9.019807e-01 2.395463e-01
2.300000e+09 -8.987779e-01 2.498151e-01
2.400000e+09 -8.954604e-01 2.600111e-01
2.500000e+09 -8.920309e-01 2.701328e-01
2.600000e+09 -8.884921e-01 2.801790e-01
2.700000e+09 -8.848468e-01 2.901487e-01
2.800000e+09 -8.810976e-01 3.000408e-01
2.900000e+09 -8.772471e-01 3.098545e-01
3.000000e+09 -8.732978e-01 3.195892e-01
3.100000e+09 -8.692522e-01 3.292440e-01
3.200000e+09 -8.651128e-01 3.388187e-01
3.300000e+09 -8.608818e-01 3.483126e-01
3.400000e+09 -8.565617e-01 3.577255e-01
3.500000e+09 -8.521545e-01 3.670571e-01
3.600000e+09 -8.476624e-01 3.763072e-01
3.700000e+09 -8.430875e-01 3.854755e-01
3.800000e+09 -8.384318e-01 3.945621e-01
3.900000e+09 -8.336972e-01 4.035668e-01
4.000000e+09 -8.288855e-01 4.124896e-01
4.100000e+09 -8.239984e-01 4.213305e-01
4.200000e+09 -8.190378e-01 4.300896e-01
4.300000e+09 -8.140052e-01 4.387668e-01
4.400000e+09 -8.089022e-01 4.473623e-01
4.500000e+09 -8.037303e-01 4.558761e-01
4.600000e+09 -7.984911e-01 4.643083e-01
4.700000e+09 -7.931858e-01 4.726589e-01
4.800000e+09 -7.878159e-01 4.809280e-01
4.900000e+09 -7.823826e-01 4.891157e-01
5.000000e+09 -7.768873e-01 4.972220e-01
5.100000e+09 -7.713312e-01 5.052470e-01
5.200000e+09 -7.657155e-01 5.131907e-01
5.300000e+09 -7.600414e-01 5.210532e-01
5.400000e+09 -7.543101e-01 5.288344e-01
5.500000e+09 -7.485226e-01 5.365344e-01
5.600000e+09 -7.426800e-01 5.441531e-01
5.700000e+09 -7.367836e-01 5.516906e-01
5.800000e+09 -7.308344e-01 5.591467e-01
5.900000e+09 -7.248333e-01 5.665215e-01
6.000000e+09 -7.187816e-01 5.738150e-01
6.100000e+09 -7.126803e-01 5.810269e-01
6.200000e+09 -7.065304e-01 5.881574e-01
6.300000e+09 -7.003330e-01 5.952062e-01
6.400000e+09 -6.940892e-01 6.021734e-01
6.500000e+09 -6.877999e-01 6.090588e-01
6.600000e+09 -6.814664e-01 6.158624e-01
6.700000e+09 -6.750896e-01 6.225840e-01
6.800000e+09 -6.686706e-01 6.292237e-01
6.900000e+09 -6.622105e-01 6.357813e-01
7.000000e+09 -6.557104e-01 6.422568e-01
7.100000e+09 -6.491714e-01 6.486501e-01
7.200000e+09 -6.425946e-01 6.549611e-01
7.300000e+09 -6.359810e-01 6.611899e-01
7.400000e+09 -6.293318e-01 6.673364e-01
7.500000e+09 -6.226480e-01 6.734005e-01
7.600000e+09 -6.159309e-01 6.793824e-01
7.700000e+09 -6.091814e-01 6.852819e-01
7.800000e+09 -6.024008e-01 6.910992e-01
7.900000e+09 -5.955902e-01 6.968343e-01
8.000000e+09 -5.887506e-01 7.024872e-01
8.100000e+09 -5.818832e-01 7.080581e-01
8.200000e+09 -5.749892e-01 7.135470e-01
8.300000e+09 -5.680695e-01 7.189541e-01
8.400000e+09 -5.611254e-01 7.242796e-01
8.500000e+09 -5.541580e-01 7.295235e-01
8.600000e+09 -5.471683e-01 7.346862e-01
8.700000e+09 -5.401575e-01 7.397677e-01
8.800000e+09 -5.331266e-01 7.447684e-01
8.900000e+09 -5.260767e-01 7.496885e-01
9.000000e+09 -5.190090e-01 7.545282e-01
9.100000e+09 -5.119243e-01 7.592880e-01
9.200000e+09 -5.048238e-01 7.639679e-01
9.300000e+09 -4.977086e-01 7.685685e-01
9.400000e+09 -4.905796e-01 7.730901e-01
9.500000e+09 -4.834378e-01 7.775330e-01
9.600000e+09 -4.762842e-01 7.818975e-01
9.700000e+09 -4.691198e-01 7.861842e-01
9.800000e+09 -4.619456e-01 7.903934e-01
9.900000e+09 -4.547624e-01 7.945256e-01
1.000000e+10 -4.475712e-01 7.985811e-01
1.010000e+10 -4.403729e-01 8.025605e-01
1.020000e+10 -4.331684e-01 8.064642e-01
1.030000e+10 -4.259585e-01 8.102927e-01
1.040000e+10 -4.187441e-01 8.140465e-01
1.050000e+10 -4.115259e-01 8.177261e-01
1.060000e+10 -4.043048e-01 8.213320e-01
1.070000e+10 -3.970817e-01 8.248646e-01
1.080000e+10 -3.898571e-01 8.283245e-01
1.090000e+10 -3.826320e-01 8.317123e-01
1.100000e+10 -3.754069e-01 8.350284e-01
1.110000e+10 -3.681827e-01 8.382735e-01
1.120000e+10 -3.609600e-01 8.414479e-01
1.130000e+10 -3.537395e-01 8.445523e-01
1.140000e+10 -3.465218e-01 8.475871e-01
1.150000e+10 -3.393076e-01 8.505530e-01
1.160000e+10 -3.320975e-01 8.534505e-01
1.170000e+10 -3.248921e-01 8.562800e-01
1.180000e+10 -3.176920e-01 8.590422e-01
1.190000e+10 -3.104978e-01 8.617375e-01
1.200000e+10 -3.033101e-01 8.643666e-01
1.210000e+10 -2.961293e-01 8.669298e-01
1.220000e+10 -2.889560e-01 8.694278e-01
1.230000e+10 -2.817908e-01 8.718611e-01
1.240000e+10 -2.746341e-01 8.742302e-01
1.250000e+10 -2.674865e-01 8.765356e-01
1.260000e+10 -2.603484e-01 8.787779e-01
1.270000e+10 -2.532203e-01 8.809574e-01
1.280000e+10 -2.461027e-01 8.830749e-01
1.290000e+10 -2.389960e-01 8.851307e-01
1.300000e+10 -2.319008e-01 8.871253e-01
1.310000e+10 -2.248173e-01 8.890593e-01
1.320000e+10 -2.177461e-01 8.909332e-01
1.330000e+10 -2.106876e-01 8.927474e-01
1.340000e+10 -2.036422e-01 8.945025e-01
1.350000e+10 -1.966103e-01 8.961989e-01
1.360000e+10 -1.895923e-01 8.978371e-01
1.370000e+10 -1.825887e-01 8.994176e-01
1.380000e+10 -1.755997e-01 9.009408e-01
1.390000e+10 -1.686258e-01 9.024074e-01
1.400000e+10 -1.616674e-01 9.038176e-01
1.410000e+10 -1.547248e-01 9.051721e-01
1.420000e+10 -1.477984e-01 9.064712e-01
1.430000e+10 -1.408886e-01 9.077155e-01
1.440000e+10 -1.339957e-01 9.089055e-01
1.450000e+10 -1.271201e-01 9.100415e-01
1.460000e+10 -1.202621e-01 9.111241e-01
1.470000e+10 -1.134221e-01 9.121538e-01
1.480000e+10 -1.066004e-01 9.131310e-01
1.490000e+10 -9.979736e-02 9.140561e-01
1.500000e+10 -9.301325e-02 9.149298e-01
1.510000e+10 -8.624842e-02 9.157524e-01
1.520000e+10 -7.950318e-02 9.165244e-01
1.530000e+10 -7.277784e-02 9.172463e-01
1.540000e+10 -6.607270e-02 9.179185e-01
1.550000e+10 -5.938807e-02 9.185416e-01
1.560000e+10 -5.272422e-02 9.191160e-01
1.570000e+10 -4.608144e-02 9.196423e-01
1.580000e+10 -3.946001e-02 9.201208e-01
1.590000e+10 -3.286020e-02 9.205520e-01
1.600000e+10 -2.628228e-02 9.209365e-01
1.610000e+10 -1.972648e-02 9.212747e-01
1.620000e+10 -1.319308e-02 9.215672e-01
1.630000e+10 -6.682303e-03 9.218143e-01
1.640000e+10 -1.943881e-04 9.220165e-01
1.650000e+10 6.270439e-03 9.221744e-01
1.660000e+10 1.271196e-02 9.222885e-01
1.670000e+10 1.912996e-02 9.223592e-01
1.680000e+10 2.552425e-02 9.223869e-01
1.690000e+10 3.189462e-02 9.223722e-01
1.700000e+10 3.824088e-02 9.223156e-01
1.710000e+10 4.456287e-02 9.222176e-01
1.720000e+10 5.086040e-02 9.220785e-01
1.730000e+10 5.713332e-02 9.218989e-01
1.740000e+10 6.338147e-02 9.216793e-01
1.750000e+10 6.960469e-02 9.214201e-01
1.760000e+10 7.580286e-02 9.211218e-01
1.770000e+10 8.197585e-02 9.207848e-01
1.780000e+10 8.812351e-02 9.204097e-01
1.790000e+10 9.424575e-02 9.199969e-01
1.800000e+10 1.003424e-01 9.195468e-01
1.810000e+10 1.064135e-01 9.190600e-01
1.820000e+10 1.124588e-01 9.185367e-01
1.830000e+10 1.184783e-01 9.179776e-01
1.840000e+10 1.244719e-01 9.173830e-01
1.850000e+10 1.304395e-01 9.167533e-01
1.860000e+10 1.363810e-01 9.160891e-01
1.870000e+10 1.422965e-01 9.153907e-01
1.880000e+10 1.481857e-01 9.146585e-01
1.890000e+10 1.540488e-01 9.138930e-01
1.900000e+10 1.598855e-01 9.130945e-01
1.910000e+10 1.656960e-01 9.122636e-01
1.920000e+10 1.714801e-01 9.114005e-01
1.930000e+10 1.772378e-01 9.105058e-01
1.940000e+10 1.829690e-01 9.095797e-01
1.950000e+10 1.886739e-01 9.086226e-01
1.960000e+10 1.943522e-01 9.076350e-01
1.970000e+10 2.000041e-01 9.066173e-01
1.980000e+10 2.056295e-01 9.055697e-01
1.990000e+10 2.112284e-01 9.044927e-01
2.000000e+10 2.168007e-01 9.033866e-01
2.010000e+10 2.223465e-01 9.022517e-01
2.020000e+10 2.278658e-01 9.010885e-01
2.030000e+10 2.333585e-01 8.998973e-01
2.040000e+10 2.388247e-01 8.986784e-01
2.050000e+10 2.442643e-01 8.974322e-01
2.060000e+10 2.496774e-01 8.961590e-01
2.070000e+10 2.550640e-01 8.948590e-01
2.080000e+10 2.604240e-01 8.935328e-01
2.090000e+10 2.657574e-01 8.921805e-01
2.100000e+10 2.710643e-01 8.908025e-01
2.110000e+10 2.763447e-01 8.893991e-01
2.120000e+10 2.815986e-01 8.879707e-01
2.130000e+10 2.868259e-01 8.865175e-01
2.140000e+10 2.920268e-01 8.850399e-01
2.150000e+10 2.972011e-01 8.835381e-01
2.160000e+10 3.023490e-01 8.820124e-01
2.170000e+10 3.074704e-01 8.804633e-01
2.180000e+10 3.125653e-01 8.788909e-01
2.190000e+10 3.176337e-01 8.772955e-01
2.200000e+10 3.226757e-01 8.756776e-01
2.210000e+10 3.276913e-01 8.740372e-01
2.220000e+10 3.326805e-01 8.723749e-01
2.230000e+10 3.376432e-01 8.706907e-01
2.240000e+10 3.425796e-01 8.689851e-01
2.250000e+10 3.474897e-01 8.672583e-01
2.260000e+10 3.523733e-01 8.655106e-01
2.270000e+10 3.572307e-01 8.637424e-01
2.280000e+10 3.620618e-01 8.619537e-01
2.290000e+10 3.668666e-01 8.601451e-01
2.300000e+10 3.716451e-01 8.583167e-01
2.310000e+10 3.763975e-01 8.564689e-01
2.320000e+10 3.811237e-01 8.546019e-01
2.330000e+10 3.858237e-01 8.527159e-01
2.340000e+10 3.904976e-01 8.508114e-01
2.350000e+10 3.951454e-01 8.488885e-01
2.360000e+10 3.997673e-01 8.469475e-01
2.370000e+10 4.043631e-01 8.449888e-01
2.380000e+10 4.089330e-01 8.430125e-01
2.390000e+10 4.134770e-01 8.410190e-01
2.400000e+10 4.179952e-01 8.390085e-01
2.410000e+10 4.224876e-01 8.369813e-01
2.420000e+10 4.269543e-01 8.349377e-01
2.430000e+10 4.313953e-01 8.328779e-01
2.440000e+10 4.358107e-01 8.308022e-01
2.450000e+10 4.402006e-01 8.287108e-01
2.460000e+10 4.445651e-01 8.266041e-01
2.470000e+10 4.489042e-01 8.244822e-01
2.480000e+10 4.532180e-01 8.223454e-01
2.490000e+10 4.575065e-01 8.201940e-01
2.500000e+10 4.617699e-01 8.180282e-01
2.510000e+10 4.660083e-01 8.158483e-01
2.520000e+10 4.702217e-01 8.136544e-01
2.530000e+10 4.744102e-01 8.114469e-01
2.540000e+10 4.785739e-01 8.092259e-01
2.550000e+10 4.827130e-01 8.069917e-01
2.560000e+10 4.868274e-01 8.047445e-01
2.570000e+10 4.909173e-01 8.024846e-01
2.580000e+10 4.949828e-01 8.002121e-01
2.590000e+10 4.990240e-01 7.979272e-01
2.600000e+10 5.030410e-01 7.956302e-01
2.610000e+10 5.070339e-01 7.933213e-01
2.620000e+10 5.110028e-01 7.910006e-01
2.630000e+10 5.149478e-01 7.886684e-01
2.640000e+10 5.188690e-01 7.863249e-01
2.650000e+10 5.227666e-01 7.839701e-01
2.660000e+10 5.266405e-01 7.816045e-01
2.670000e+10 5.304910e-01 7.792280e-01
2.680000e+10 5.343180e-01 7.768409e-01
2.690000e+10 5.381218e-01 7.744433e-01
2.700000e+10 5.419025e-01 7.720355e-01
2.710000e+10 5.456600e-01 7.696176e-01
2.720000e+10 5.493946e-01 7.671897e-01
2.730000e+10 5.531063e-01 7.647520e-01
2.740000e+10 5.567952e-01 7.623047e-01
2.750000e+10 5.604615e-01 7.598478e-01
2.760000e+10 5.641051e-01 7.573817e-01
2.770000e+10 5.677263e-01 7.549063e-01
2.780000e+10 5.713251e-01 7.524220e-01
2.790000e+10 5.749015e-01 7.499287e-01
2.800000e+10 5.784558e-01 7.474266e-01
2.810000e+10 5.819878e-01 7.449159e-01
2.820000e+10 5.854979e-01 7.423968e-01
2.830000e+10 5.889859e-01 7.398693e-01
2.840000e+10 5.924521e-01 7.373335e-01
2.850000e+10 5.958965e-01 7.347898e-01
2.860000e+10 5.993191e-01 7.322380e-01
2.870000e+10 6.027200e-01 7.296785e-01
2.880000e+10 6.060994e-01 7.271112e-01
2.890000e+10 6.094573e-01 7.245365e-01
2.900000e+10 6.127937e-01 7.219543e-01
2.910000e+10 6.161087e-01 7.193648e-01
2.920000e+10 6.194025e-01 7.167682e-01
2.930000e+10 6.226750e-01 7.141646e-01
2.940000e+10 6.259263e-01 7.115541e-01
2.950000e+10 6.291566e-01 7.089369e-01
2.960000e+10 6.323658e-01 7.063130e-01
2.970000e+10 6.355541e-01 7.036827e-01
2.980000e+10 6.387215e-01 7.010461e-01
2.990000e+10 6.418681e-01 6.984032e-01
3.000000e+10 6.449939e-01 6.957543e-01
3.010000e+10 6.480990e-01 6.930994e-01
3.020000e+10 6.511835e-01 6.904388e-01
3.030000e+10 6.542475e-01 6.877725e-01
3.040000e+10 6.572910e-01 6.851007e-01
3.050000e+10 6.603142e-01 6.824236e-01
3.060000e+10 6.633170e-01 6.797412e-01
3.070000e+10 6.662995e-01 6.770537e-01
3.080000e+10 6.692620e-01 6.743613e-01
3.090000e+10 6.722043e-01 6.716640e-01
3.100000e+10 6.751267e-01 6.689621e-01
3.110000e+10 6.780291e-01 6.662556e-01
3.120000e+10 6.809118e-01 6.635448e-01
3.130000e+10 6.837747e-01 6.608296e-01
3.140000e+10 6.866180e-01 6.581104e-01
3.150000e+10 6.894418e-01 6.553871e-01
3.160000e+10 6.922461e-01 6.526599e-01
3.170000e+10 6.950311e-01 6.499290e-01
3.180000e+10 6.977968e-01 6.471945e-01
3.190000e+10 7.005435e-01 6.444565e-01
3.200000e+10 7.032711e-01 6.417151e-01
3.210000e+10 7.059798e-01 6.389705e-01
3.220000e+10 7.086698e-01 6.362227e-01
3.230000e+10 7.113410e-01 6.334718e-01
3.240000e+10 7.139936e-01 6.307180e-01
3.250000e+10 7.166278e-01 6.279614e-01
3.260000e+10 7.192437e-01 6.252021e-01
3.270000e+10 7.218413e-01 6.224401e-01
3.280000e+10 7.244209e-01 6.196755e-01
3.290000e+10 7.269824e-01 6.169085e-01
3.300000e+10 7.295260e-01 6.141392e-01
3.310000e+10 7.320519e-01 6.113675e-01
3.320000e+10 7.345601e-01 6.085936e-01
3.330000e+10 7.370509e-01 6.058175e-01
3.340000e+10 7.395241e-01 6.030393e-01
3.350000e+10 7.419801e-01 6.002591e-01
3.360000e+10 7.444189e-01 5.974769e-01
3.370000e+10 7.468406e-01 5.946927e-01
3.380000e+10 7.492452e-01 5.919067e-01
3.390000e+10 7.516330e-01 5.891189e-01
3.400000e+10 7.540040e-01 5.863292e-01
3.410000e+10 7.563583e-01 5.835378e-01
3.420000e+10 7.586960e-01 5.807446e-01
3.430000e+10 7.610172e-01 5.779498e-01
3.440000e+10 7.633219e-01 5.751533e-01
3.450000e+10 7.656103e-01 5.723551e-01
3.460000e+10 7.678823e-01 5.695554e-01
3.470000e+10 7.701382e-01 5.667540e-01
3.480000e+10 7.723779e-01 5.639511e-01
3.490000e+10 7.746015e-01 5.611467e-01
3.500000e+10 7.768091e-01 5.583407e-01
3.510000e+10 7.790007e-01 5.555333e-01
3.520000e+10 7.811764e-01 5.527244e-01
3.530000e+10 7.833361e-01 5.499140e-01
3.540000e+10 7.854801e-01 5.471023e-01
3.550000e+10 7.876082e-01 5.442891e-01
3.560000e+10 7.897205e-01 5.414746e-01
3.570000e+10 7.918170e-01 5.386588e-01
3.580000e+10 7.938978e-01 5.358417e-01
3.590000e+10 7.959629e-01 5.330234e-01
3.600000e+10 7.980123e-01 5.302039e-01
3.610000e+10 8.000461e-01 5.273833e-01
3.620000e+10 8.020641e-01 5.245615e-01
3.630000e+10 8.040666e-01 5.217387e-01
3.640000e+10 8.060534e-01 5.189150e-01
3.650000e+10 8.080245e-01 5.160903e-01
3.660000e+10 8.099801e-01 5.132648e-01
3.670000e+10 8.119201e-01 5.104385e-01
3.680000e+10 8.138445e-01 5.076115e-01
3.690000e+10 8.157534e-01 5.047839e-01
3.700000e+10 8.176467e-01 5.019559e-01
3.710000e+10 8.195245e-01 4.991273e-01
3.720000e+10 8.213868e-01 4.962985e-01
3.730000e+10 8.232337e-01 4.934694e-01
3.740000e+10 8.250651e-01 4.906402e-01
3.750000e+10 8.268812e-01 4.878110e-01
3.760000e+10 8.286820e-01 4.849819e-01
3.770000e+10 8.304674e-01 4.821530e-01
3.780000e+10 8.322376e-01 4.793244e-01
3.790000e+10 8.339927e-01 4.764962e-01
3.800000e+10 8.357327e-01 4.736685e-01
3.810000e+10 8.374577e-01 4.708416e-01
3.820000e+10 8.391677e-01 4.680154e-01
3.830000e+10 8.408629e-01 4.651900e-01
3.840000e+10 8.425434e-01 4.623657e-01
3.850000e+10 8.442092e-01 4.595425e-01
3.860000e+10 8.458605e-01 4.567204e-01
3.870000e+10 8.474974e-01 4.538997e-01
3.880000e+10 8.491200e-01 4.510804e-01
3.890000e+10 8.507285e-01 4.482626e-01
3.900000e+10 8.523230e-01 4.454463e-01
3.910000e+10 8.539036e-01 4.426317e-01
3.920000e+10 8.554705e-01 4.398188e-01
3.930000e+10 8.570239e-01 4.370077e-01
3.940000e+10 8.585638e-01 4.341984e-01
3.950000e+10 8.600906e-01 4.313911e-01
3.960000e+10 8.616043e-01 4.285856e-01
3.970000e+10 8.631051e-01 4.257821e-01
3.980000e+10 8.645931e-01 4.229805e-01
3.990000e+10 8.660687e-01 4.201809e-01
4.000000e+10 8.675318e-01 4.173833e-01
