#   Hz   S  RI   R   50
!
0.000000e+00 -9.346445e-01 0.000000e+00
1.000000e+08 -9.345728e-01 1.139472e-02
2.000000e+08 -9.343571e-01 2.278871e-02
3.000000e+08 -9.339968e-01 3.418113e-02
4.000000e+08 -9.334905e-01 4.557085e-02
5.000000e+08 -9.328364e-01 5.695635e-02
6.000000e+08 -9.320324e-01 6.833563e-02
7.000000e+08 -9.310760e-01 7.970606e-02
8.000000e+08 -9.299648e-01 9.106432e-02
9.000000e+08 -9.286962e-01 1.024064e-01
1.000000e+09 -9.272679e-01 1.137273e-01
1.100000e+09 -9.256779e-01 1.250216e-01
1.200000e+09 -9.239249e-01 1.362827e-01
1.300000e+09 -9.220081e-01 1.475038e-01
1.400000e+09 -9.199279e-01 1.586772e-01
1.500000e+09 -9.176854e-01 1.697949e-01
1.600000e+09 -9.152833e-01 1.808489e-01
1.700000e+09 -9.127254e-01 1.918311e-01
1.800000e+09 -9.100168e-01 2.027339e-01
1.900000e+09 -9.071637e-01 2.135502e-01
2.000000e+09 -9.041739e-01 2.242740e-01
2.100000e+09 -9.010559e-01 2.349005e-01
2.200000e+09 -8.978188e-01 2.454262e-01
2.300000e+09 -8.944725e-01 2.558494e-01
2.400000e+09 -8.910266e-01 2.661701e-01
2.500000e+09 -8.874906e-01 2.763899e-01
2.600000e+09 -8.838732e-01 2.865124e-01
2.700000e+09 -8.801822e-01 2.965423e-01
2.800000e+09 -8.764237e-01 3.064858e-01
2.900000e+09 -8.726023e-01 3.163500e-01
3.000000e+09 -8.687209e-01 3.261425e-01
3.100000e+09 -8.647803e-01 3.358707e-01
3.200000e+09 -8.607795e-01 3.455422e-01
3.300000e+09 -8.567158e-01 3.551633e-01
3.400000e+09 -8.525848e-01 3.647396e-01
3.500000e+09 -8.483811e-01 3.742749e-01
3.600000e+09 -8.440983e-01 3.837715e-01
3.700000e+09 -8.397294e-01 3.932298e-01
3.800000e+09 -8.352678e-01 4.026483e-01
3.900000e+09 -8.307070e-01 4.120237e-01
4.000000e+09 -8.260413e-01 4.213509e-01
4.100000e+09 -8.212664e-01 4.306234e-01
4.200000e+09 -8.163794e-01 4.398334e-01
4.300000e+09 -8.113793e-01 4.489724e-01
4.400000e+09 -8.062668e-01 4.580316e-01
4.500000e+09 -8.010446e-01 4.670022e-01
4.600000e+09 -7.957175e-01 4.758760e-01
4.700000e+09 -7.902919e-01 4.846456e-01
4.800000e+09 -7.847756e-01 4.933052e-01
4.900000e+09 -7.791775e-01 5.018506e-01
5.000000e+09 -7.735075e-01 5.102793e-01
5.100000e+09 -7.677753e-01 5.185911e-01
5.200000e+09 -7.619907e-01 5.267876e-01
5.300000e+09 -7.561627e-01 5.348724e-01
5.400000e+09 -7.502991e-01 5.428509e-01
5.500000e+09 -7.444063e-01 5.507297e-01
5.600000e+09 -7.384889e-01 5.585165e-01
5.700000e+09 -7.325495e-01 5.662195e-01
5.800000e+09 -7.265888e-01 5.738470e-01
5.900000e+09 -7.206056e-01 5.814070e-01
6.000000e+09 -7.145966e-01 5.889064e-01
6.100000e+09 -7.085572e-01 5.963512e-01
6.200000e+09 -7.024816e-01 6.037456e-01
6.300000e+09 -6.963631e-01 6.110922e-01
6.400000e+09 -6.901946e-01 6.183917e-01
6.500000e+09 -6.839693e-01 6.256429e-01
6.600000e+09 -6.776806e-01 6.328426e-01
6.700000e+09 -6.713230e-01 6.399862e-01
6.800000e+09 -6.648923e-01 6.470675e-01
6.900000e+09 -6.583857e-01 6.540794e-01
7.000000e+09 -6.518024e-01 6.610141e-01
7.100000e+09 -6.451431e-01 6.678634e-01
7.200000e+09 -6.384108e-01 6.746196e-01
7.300000e+09 -6.316098e-01 6.812753e-01
7.400000e+09 -6.247464e-01 6.878245e-01
7.500000e+09 -6.178278e-01 6.942622e-01
7.600000e+09 -6.108624e-01 7.005853e-01
7.700000e+09 -6.038590e-01 7.067922e-01
7.800000e+09 -5.968266e-01 7.128833e-01
7.900000e+09 -5.897737e-01 7.188609e-01
8.000000e+09 -5.827083e-01 7.247289e-01
8.100000e+09 -5.756371e-01 7.304927e-01
8.200000e+09 -5.685653e-01 7.361587e-01
8.300000e+09 -5.614968e-01 7.417344e-01
8.400000e+09 -5.544335e-01 7.472273e-01
8.500000e+09 -5.473755e-01 7.526452e-01
8.600000e+09 -5.403214e-01 7.579954e-01
8.700000e+09 -5.332679e-01 7.632841e-01
8.800000e+09 -5.262107e-01 7.685167e-01
8.900000e+09 -5.191444e-01 7.736970e-01
9.000000e+09 -5.120631e-01 7.788272e-01
9.100000e+09 -5.049604e-01 7.839081e-01
9.200000e+09 -4.978303e-01 7.889384e-01
9.300000e+09 -4.906672e-01 7.939156e-01
9.400000e+09 -4.834663e-01 7.988357e-01
9.500000e+09 -4.762243e-01 8.036935e-01
9.600000e+09 -4.689389e-01 8.084830e-01
9.700000e+09 -4.616095e-01 8.131977e-01
9.800000e+09 -4.542372e-01 8.178310e-01
9.900000e+09 -4.468246e-01 8.223766e-01
1.000000e+10 -4.393756e-01 8.268287e-01
1.010000e+10 -4.318956e-01 8.311826e-01
1.020000e+10 -4.243910e-01 8.354347e-01
1.030000e+10 -4.168689e-01 8.395829e-01
1.040000e+10 -4.093367e-01 8.436265e-01
1.050000e+10 -4.018018e-01 8.475664e-01
1.060000e+10 -3.942713e-01 8.514052e-01
1.070000e+10 -3.867516e-01 8.551466e-01
1.080000e+10 -3.792480e-01 8.587958e-01
1.090000e+10 -3.717647e-01 8.623587e-01
1.100000e+10 -3.643044e-01 8.658417e-01
1.110000e+10 -3.568682e-01 8.692518e-01
1.120000e+10 -3.494560e-01 8.725955e-01
1.130000e+10 -3.420660e-01 8.758792e-01
1.140000e+10 -3.346951e-01 8.791083e-01
1.150000e+10 -3.273395e-01 8.822873e-01
1.160000e+10 -3.199941e-01 8.854194e-01
1.170000e+10 -3.126539e-01 8.885066e-01
1.180000e+10 -3.053132e-01 8.915492e-01
1.190000e+10 -2.979668e-01 8.945463e-01
1.200000e+10 -2.906101e-01 8.974957e-01
1.210000e+10 -2.832390e-01 9.003940e-01
1.220000e+10 -2.758507e-01 9.032368e-01
1.230000e+10 -2.684433e-01 9.060191e-01
1.240000e+10 -2.610165e-01 9.087356e-01
1.250000e+10 -2.535713e-01 9.113809e-01
1.260000e+10 -2.461099e-01 9.139499e-01
1.270000e+10 -2.386359e-01 9.164380e-01
1.280000e+10 -2.311537e-01 9.188416e-01
1.290000e+10 -2.236688e-01 9.211580e-01
1.300000e+10 -2.161871e-01 9.233857e-01
1.310000e+10 -2.087149e-01 9.255246e-01
1.320000e+10 -2.012582e-01 9.275759e-01
1.330000e+10 -1.938228e-01 9.295422e-01
1.340000e+10 -1.864138e-01 9.314270e-01
1.350000e+10 -1.790356e-01 9.332350e-01
1.360000e+10 -1.716913e-01 9.349714e-01
1.370000e+10 -1.643828e-01 9.366421e-01
1.380000e+10 -1.571108e-01 9.382530e-01
1.390000e+10 -1.498747e-01 9.398100e-01
1.400000e+10 -1.426726e-01 9.413184e-01
1.410000e+10 -1.355017e-01 9.427831e-01
1.420000e+10 -1.283583e-01 9.442077e-01
1.430000e+10 -1.212378e-01 9.455951e-01
1.440000e+10 -1.141355e-01 9.469467e-01
1.450000e+10 -1.070466e-01 9.482630e-01
1.460000e+10 -9.996643e-02 9.495430e-01
1.470000e+10 -9.289074e-02 9.507848e-01
1.480000e+10 -8.581607e-02 9.519853e-01
1.490000e+10 -7.873985e-02 9.531407e-01
1.500000e+10 -7.166058e-02 9.542468e-01
1.510000e+10 -6.457791e-02 9.552990e-01
1.520000e+10 -5.749268e-02 9.562926e-01
1.530000e+10 -5.040687e-02 9.572234e-01
1.540000e+10 -4.332351e-02 9.580876e-01
1.550000e+10 -3.624654e-02 9.588820e-01
1.560000e+10 -2.918060e-02 9.596046e-01
1.570000e+10 -2.213077e-02 9.602544e-01
1.580000e+10 -1.510234e-02 9.608314e-01
1.590000e+10 -8.100526e-03 9.613370e-01
1.600000e+10 -1.130201e-03 9.617735e-01
1.610000e+10 5.804354e-03 9.621443e-01
1.620000e+10 1.269966e-02 9.624536e-01
1.630000e+10 1.955319e-02 9.627063e-01
1.640000e+10 2.636354e-02 9.629076e-01
1.650000e+10 3.313041e-02 9.630628e-01
1.660000e+10 3.985464e-02 9.631772e-01
1.670000e+10 4.653816e-02 9.632556e-01
1.680000e+10 5.318381e-02 9.633021e-01
1.690000e+10 5.979522e-02 9.633200e-01
1.700000e+10 6.637655e-02 9.633118e-01
1.710000e+10 7.293230e-02 9.632788e-01
1.720000e+10 7.946701e-02 9.632211e-01
1.730000e+10 8.598502e-02 9.631378e-01
1.740000e+10 9.249023e-02 9.630270e-01
1.750000e+10 9.898589e-02 9.628859e-01
1.760000e+10 1.054744e-01 9.627111e-01
1.770000e+10 1.119571e-01 9.624985e-01
1.780000e+10 1.184345e-01 9.622440e-01
1.790000e+10 1.249058e-01 9.619433e-01
1.800000e+10 1.313692e-01 9.615926e-01
1.810000e+10 1.378220e-01 9.611884e-01
1.820000e+10 1.442606e-01 9.607278e-01
1.830000e+10 1.506809e-01 9.602091e-01
1.840000e+10 1.570783e-01 9.596314e-01
1.850000e+10 1.634480e-01 9.589948e-01
1.860000e+10 1.697853e-01 9.583007e-01
1.870000e+10 1.760858e-01 9.575512e-01
1.880000e+10 1.823458e-01 9.567496e-01
1.890000e+10 1.885621e-01 9.558999e-01
1.900000e+10 1.947327e-01 9.550067e-01
1.910000e+10 2.008564e-01 9.540747e-01
1.920000e+10 2.069332e-01 9.531091e-01
1.930000e+10 2.129639e-01 9.521147e-01
1.940000e+10 2.189507e-01 9.510959e-01
1.950000e+10 2.248965e-01 9.500567e-01
1.960000e+10 2.308047e-01 9.490002e-01
1.970000e+10 2.366796e-01 9.479285e-01
1.980000e+10 2.425256e-01 9.468428e-01
1.990000e+10 2.483471e-01 9.457431e-01
2.000000e+10 2.541485e-01 9.446285e-01
2.010000e+10 2.599335e-01 9.434971e-01
2.020000e+10 2.657054e-01 9.423461e-01
2.030000e+10 2.714665e-01 9.411720e-01
2.040000e+10 2.772184e-01 9.399710e-01
2.050000e+10 2.829615e-01 9.387388e-01
2.060000e+10 2.886950e-01 9.374715e-01
2.070000e+10 2.944175e-01 9.361651e-01
2.080000e+10 3.001262e-01 9.348162e-01
2.090000e+10 3.058179e-01 9.334221e-01
2.100000e+10 3.114885e-01 9.319809e-01
2.110000e+10 3.171336e-01 9.304918e-01
2.120000e+10 3.227486e-01 9.289548e-01
2.130000e+10 3.283290e-01 9.273711e-01
2.140000e+10 3.338706e-01 9.257431e-01
2.150000e+10 3.393698e-01 9.240738e-01
2.160000e+10 3.448235e-01 9.223671e-01
2.170000e+10 3.502299e-01 9.206276e-01
2.180000e+10 3.555879e-01 9.188599e-01
2.190000e+10 3.608975e-01 9.170692e-01
2.200000e+10 3.661598e-01 9.152601e-01
2.210000e+10 3.713771e-01 9.134372e-01
2.220000e+10 3.765522e-01 9.116042e-01
2.230000e+10 3.816890e-01 9.097642e-01
2.240000e+10 3.867917e-01 9.079193e-01
2.250000e+10 3.918649e-01 9.060707e-01
2.260000e+10 3.969133e-01 9.042182e-01
2.270000e+10 4.019413e-01 9.023608e-01
2.280000e+10 4.069529e-01 9.004965e-01
2.290000e+10 4.119516e-01 8.986224e-01
2.300000e+10 4.169399e-01 8.967348e-01
2.310000e+10 4.219193e-01 8.948296e-01
2.320000e+10 4.268905e-01 8.929024e-01
2.330000e+10 4.318528e-01 8.909489e-01
2.340000e+10 4.368046e-01 8.889650e-01
2.350000e+10 4.417433e-01 8.869469e-01
2.360000e+10 4.466655e-01 8.848919e-01
2.370000e+10 4.515671e-01 8.827977e-01
2.380000e+10 4.564434e-01 8.806633e-01
2.390000e+10 4.612898e-01 8.784888e-01
2.400000e+10 4.661016e-01 8.762754e-01
2.410000e+10 4.708742e-01 8.740252e-01
2.420000e+10 4.756040e-01 8.717416e-01
2.430000e+10 4.802877e-01 8.694284e-01
2.440000e+10 4.849234e-01 8.670905e-01
2.450000e+10 4.895100e-01 8.647328e-01
2.460000e+10 4.940475e-01 8.623606e-01
2.470000e+10 4.985372e-01 8.599789e-01
2.480000e+10 5.029814e-01 8.575926e-01
2.490000e+10 5.073833e-01 8.552056e-01
2.500000e+10 5.117472e-01 8.528211e-01
2.510000e+10 5.160776e-01 8.504415e-01
2.520000e+10 5.203797e-01 8.480678e-01
2.530000e+10 5.246585e-01 8.457000e-01
2.540000e+10 5.289191e-01 8.433369e-01
2.550000e+10 5.331659e-01 8.409761e-01
2.560000e+10 5.374027e-01 8.386143e-01
2.570000e+10 5.416325e-01 8.362475e-01
2.580000e+10 5.458571e-01 8.338711e-01
2.590000e+10 5.500773e-01 8.314799e-01
2.600000e+10 5.542925e-01 8.290692e-01
2.610000e+10 5.585009e-01 8.266340e-01
2.620000e+10 5.626998e-01 8.241703e-01
2.630000e+10 5.668854e-01 8.216744e-01
2.640000e+10 5.710530e-01 8.191440e-01
2.650000e+10 5.751977e-01 8.165776e-01
2.660000e+10 5.793140e-01 8.139751e-01
2.670000e+10 5.833965e-01 8.113376e-01
2.680000e+10 5.874403e-01 8.086675e-01
2.690000e+10 5.914409e-01 8.059682e-01
2.700000e+10 5.953949e-01 8.032443e-01
2.710000e+10 5.992995e-01 8.005010e-01
2.720000e+10 6.031537e-01 7.977440e-01
2.730000e+10 6.069573e-01 7.949791e-01
2.740000e+10 6.107118e-01 7.922123e-01
2.750000e+10 6.144197e-01 7.894490e-01
2.760000e+10 6.180848e-01 7.866938e-01
2.770000e+10 6.217119e-01 7.839505e-01
2.780000e+10 6.253063e-01 7.812218e-01
2.790000e+10 6.288742e-01 7.785090e-01
2.800000e+10 6.324214e-01 7.758120e-01
2.810000e+10 6.359539e-01 7.731295e-01
2.820000e+10 6.394772e-01 7.704587e-01
2.830000e+10 6.429958e-01 7.677956e-01
2.840000e+10 6.465134e-01 7.651355e-01
2.850000e+10 6.500324e-01 7.624726e-01
2.860000e+10 6.535537e-01 7.598010e-01
2.870000e+10 6.570768e-01 7.571146e-01
2.880000e+10 6.605998e-01 7.544075e-01
2.890000e+10 6.641196e-01 7.516743e-01
2.900000e+10 6.676315e-01 7.489108e-01
2.910000e+10 6.711302e-01 7.461135e-01
2.920000e+10 6.746094e-01 7.432805e-01
2.930000e+10 6.780627e-01 7.404115e-01
2.940000e+10 6.814834e-01 7.375075e-01
2.950000e+10 6.848654e-01 7.345710e-01
2.960000e+10 6.882031e-01 7.316063e-01
2.970000e+10 6.914920e-01 7.286185e-01
2.980000e+10 6.947287e-01 7.256139e-01
2.990000e+10 6.979115e-01 7.225995e-01
3.000000e+10 7.010402e-01 7.195825e-01
3.010000e+10 7.041163e-01 7.165701e-01
3.020000e+10 7.071428e-01 7.135691e-01
3.030000e+10 7.101244e-01 7.105854e-01
3.040000e+10 7.130668e-01 7.076239e-01
3.050000e+10 7.159768e-01 7.046879e-01
3.060000e+10 7.188619e-01 7.017791e-01
3.070000e+10 7.217298e-01 6.988978e-01
3.080000e+10 7.245880e-01 6.960421e-01
3.090000e+10 7.274436e-01 6.932086e-01
3.100000e+10 7.303025e-01 6.903924e-01
3.110000e+10 7.331697e-01 6.875873e-01
3.120000e+10 7.360482e-01 6.847859e-01
3.130000e+10 7.389397e-01 6.819806e-01
3.140000e+10 7.418437e-01 6.791631e-01
3.150000e+10 7.447580e-01 6.763258e-01
3.160000e+10 7.476785e-01 6.734614e-01
3.170000e+10 7.505994e-01 6.705638e-01
3.180000e+10 7.535138e-01 6.676285e-01
3.190000e+10 7.564135e-01 6.646525e-01
3.200000e+10 7.592899e-01 6.616349e-01
3.210000e+10 7.621343e-01 6.585766e-01
3.220000e+10 7.649383e-01 6.554808e-01
3.230000e+10 7.676941e-01 6.523526e-01
3.240000e+10 7.703955e-01 6.491987e-01
3.250000e+10 7.730378e-01 6.460273e-01
3.260000e+10 7.756181e-01 6.428475e-01
3.270000e+10 7.781359e-01 6.396690e-01
3.280000e+10 7.805928e-01 6.365015e-01
3.290000e+10 7.829926e-01 6.333543e-01
3.300000e+10 7.853411e-01 6.302355e-01
3.310000e+10 7.876461e-01 6.271519e-01
3.320000e+10 7.899167e-01 6.241085e-01
3.330000e+10 7.921629e-01 6.211078e-01
3.340000e+10 7.943953e-01 6.181504e-01
3.350000e+10 7.966244e-01 6.152341e-01
3.360000e+10 7.988600e-01 6.123545e-01
3.370000e+10 8.011107e-01 6.095049e-01
3.380000e+10 8.033836e-01 6.066769e-01
3.390000e+10 8.056834e-01 6.038605e-01
3.400000e+10 8.080128e-01 6.010446e-01
3.410000e+10 8.103714e-01 5.982178e-01
3.420000e+10 8.127567e-01 5.953690e-01
3.430000e+10 8.151632e-01 5.924877e-01
3.440000e+10 8.175832e-01 5.895649e-01
3.450000e+10 8.200069e-01 5.865935e-01
3.460000e+10 8.224230e-01 5.835687e-01
3.470000e+10 8.248192e-01 5.804885e-01
3.480000e+10 8.271828e-01 5.773537e-01
3.490000e+10 8.295015e-01 5.741683e-01
3.500000e+10 8.317639e-01 5.709388e-01
3.510000e+10 8.339604e-01 5.676747e-01
3.520000e+10 8.360837e-01 5.643872e-01
3.530000e+10 8.381290e-01 5.610894e-01
3.540000e+10 8.400948e-01 5.577954e-01
3.550000e+10 8.419828e-01 5.545193e-01
3.560000e+10 8.437979e-01 5.512748e-01
3.570000e+10 8.455483e-01 5.480742e-01
3.580000e+10 8.472447e-01 5.449279e-01
3.590000e+10 8.489003e-01 5.418436e-01
3.600000e+10 8.505297e-01 5.388260e-01
3.610000e+10 8.521486e-01 5.358760e-01
3.620000e+10 8.537726e-01 5.329914e-01
3.630000e+10 8.554167e-01 5.301659e-01
3.640000e+10 8.570942e-01 5.273903e-01
3.650000e+10 8.588160e-01 5.246520e-01
3.660000e+10 8.605902e-01 5.219364e-01
3.670000e+10 8.624213e-01 5.192267e-01
3.680000e+10 8.643098e-01 5.165058e-01
3.690000e+10 8.662522e-01 5.137563e-01
3.700000e+10 8.682412e-01 5.109618e-01
3.710000e+10 8.702654e-01 5.081078e-01
3.720000e+10 8.723105e-01 5.051827e-01
3.730000e+10 8.743592e-01 5.021782e-01
3.740000e+10 8.763926e-01 4.990900e-01
3.750000e+10 8.783911e-01 4.959186e-01
3.760000e+10 8.803350e-01 4.926689e-01
3.770000e+10 8.822061e-01 4.893504e-01
3.780000e+10 8.839885e-01 4.859767e-01
3.790000e+10 8.856697e-01 4.825651e-01
3.800000e+10 8.872413e-01 4.791358e-01
3.810000e+10 8.886997e-01 4.757107e-01
3.820000e+10 8.900465e-01 4.723124e-01
3.830000e+10 8.912883e-01 4.689629e-01
3.840000e+10 8.924371e-01 4.656825e-01
3.850000e+10 8.935094e-01 4.624885e-01
3.860000e+10 8.945255e-01 4.593941e-01
3.870000e+10 8.955087e-01 4.564079e-01
3.880000e+10 8.964839e-01 4.535329e-01
3.890000e+10 8.974766e-01 4.507662e-01
3.900000e+10 8.985114e-01 4.480993e-01
3.910000e+10 8.996106e-01 4.455178e-01
3.920000e+10 9.007931e-01 4.430026e-01
3.930000e+10 9.020733e-01 4.405299e-01
3.940000e+10 9.034598e-01 4.380733e-01
3.950000e+10 9.049550e-01 4.356042e-01
3.960000e+10 9.065550e-01 4.330939e-01
3.970000e+10 9.082489e-01 4.305144e-01
3.980000e+10 9.100195e-01 4.278409e-01
3.990000e+10 9.118438e-01 4.250523e-01
4.000000e+10 9.136941e-01 4.221332e-01
