#   Hz   S  RI   R   50
!
0.000000e+00 -9.377055e-01 0.000000e+00
1.000000e+08 -9.376123e-01 1.224117e-02
2.000000e+08 -9.373330e-01 2.447699e-02
3.000000e+08 -9.368679e-01 3.670215e-02
4.000000e+08 -9.362178e-01 4.891135e-02
5.000000e+08 -9.353835e-01 6.109939e-02
6.000000e+08 -9.343664e-01 7.326113e-02
7.000000e+08 -9.331680e-01 8.539154e-02
8.000000e+08 -9.317898e-01 9.748570e-02
9.000000e+08 -9.302340e-01 1.095389e-01
1.000000e+09 -9.285027e-01 1.215464e-01
1.100000e+09 -9.265983e-01 1.335038e-01
1.200000e+09 -9.245233e-01 1.454069e-01
1.300000e+09 -9.222805e-01 1.572516e-01
1.400000e+09 -9.198728e-01 1.690339e-01
1.500000e+09 -9.173032e-01 1.807503e-01
1.600000e+09 -9.145749e-01 1.923973e-01
1.700000e+09 -9.116912e-01 2.039716e-01
1.800000e+09 -9.086553e-01 2.154702e-01
1.900000e+09 -9.054706e-01 2.268903e-01
2.000000e+09 -9.021407e-01 2.382293e-01
2.100000e+09 -8.986689e-01 2.494849e-01
2.200000e+09 -8.950588e-01 2.606549e-01
2.300000e+09 -8.913138e-01 2.717374e-01
2.400000e+09 -8.874374e-01 2.827305e-01
2.500000e+09 -8.834331e-01 2.936327e-01
2.600000e+09 -8.793041e-01 3.044427e-01
2.700000e+09 -8.750540e-01 3.151592e-01
2.800000e+09 -8.706858e-01 3.257811e-01
2.900000e+09 -8.662029e-01 3.363077e-01
3.000000e+09 -8.616084e-01 3.467380e-01
3.100000e+09 -8.569053e-01 3.570715e-01
3.200000e+09 -8.520966e-01 3.673076e-01
3.300000e+09 -8.471850e-01 3.774459e-01
3.400000e+09 -8.421735e-01 3.874861e-01
3.500000e+09 -8.370646e-01 3.974280e-01
3.600000e+09 -8.318610e-01 4.072714e-01
3.700000e+09 -8.265650e-01 4.170162e-01
3.800000e+09 -8.211792e-01 4.266623e-01
3.900000e+09 -8.157057e-01 4.362098e-01
4.000000e+09 -8.101468e-01 4.456586e-01
4.100000e+09 -8.045046e-01 4.550088e-01
4.200000e+09 -7.987810e-01 4.642606e-01
4.300000e+09 -7.929782e-01 4.734138e-01
4.400000e+09 -7.870979e-01 4.824688e-01
4.500000e+09 -7.811419e-01 4.914255e-01
4.600000e+09 -7.751121e-01 5.002841e-01
4.700000e+09 -7.690100e-01 5.090447e-01
4.800000e+09 -7.628373e-01 5.177072e-01
4.900000e+09 -7.565956e-01 5.262719e-01
5.000000e+09 -7.502865e-01 5.347387e-01
5.100000e+09 -7.439115e-01 5.431077e-01
5.200000e+09 -7.374720e-01 5.513789e-01
5.300000e+09 -7.309695e-01 5.595524e-01
5.400000e+09 -7.244054e-01 5.676281e-01
5.500000e+09 -7.177812e-01 5.756060e-01
5.600000e+09 -7.110982e-01 5.834861e-01
5.700000e+09 -7.043579e-01 5.912683e-01
5.800000e+09 -6.975615e-01 5.989525e-01
5.900000e+09 -6.907105e-01 6.065388e-01
6.000000e+09 -6.838063e-01 6.140271e-01
6.100000e+09 -6.768503e-01 6.214171e-01
6.200000e+09 -6.698438e-01 6.287090e-01
6.300000e+09 -6.627881e-01 6.359026e-01
6.400000e+09 -6.556848e-01 6.429979e-01
6.500000e+09 -6.485352e-01 6.499947e-01
6.600000e+09 -6.413407e-01 6.568931e-01
6.700000e+09 -6.341027e-01 6.636929e-01
6.800000e+09 -6.268227e-01 6.703941e-01
6.900000e+09 -6.195020e-01 6.769968e-01
7.000000e+09 -6.121422e-01 6.835009e-01
7.100000e+09 -6.047446e-01 6.899064e-01
7.200000e+09 -5.973108e-01 6.962134e-01
7.300000e+09 -5.898421e-01 7.024219e-01
7.400000e+09 -5.823400e-01 7.085321e-01
7.500000e+09 -5.748061e-01 7.145439e-01
7.600000e+09 -5.672416e-01 7.204577e-01
7.700000e+09 -5.596482e-01 7.262735e-01
7.800000e+09 -5.520272e-01 7.319915e-01
7.900000e+09 -5.443802e-01 7.376120e-01
8.000000e+09 -5.367085e-01 7.431352e-01
8.100000e+09 -5.290135e-01 7.485614e-01
8.200000e+09 -5.212968e-01 7.538910e-01
8.300000e+09 -5.135597e-01 7.591242e-01
8.400000e+09 -5.058036e-01 7.642615e-01
8.500000e+09 -4.980300e-01 7.693033e-01
8.600000e+09 -4.902401e-01 7.742499e-01
8.700000e+09 -4.824353e-01 7.791019e-01
8.800000e+09 -4.746169e-01 7.838598e-01
8.900000e+09 -4.667863e-01 7.885240e-01
9.000000e+09 -4.589448e-01 7.930951e-01
9.100000e+09 -4.510935e-01 7.975737e-01
9.200000e+09 -4.432338e-01 8.019603e-01
9.300000e+09 -4.353667e-01 8.062556e-01
9.400000e+09 -4.274937e-01 8.104603e-01
9.500000e+09 -4.196156e-01 8.145748e-01
9.600000e+09 -4.117338e-01 8.186000e-01
9.700000e+09 -4.038492e-01 8.225364e-01
9.800000e+09 -3.959631e-01 8.263848e-01
9.900000e+09 -3.880763e-01 8.301459e-01
1.000000e+10 -3.801899e-01 8.338204e-01
1.010000e+10 -3.723049e-01 8.374090e-01
1.020000e+10 -3.644223e-01 8.409124e-01
1.030000e+10 -3.565429e-01 8.443314e-01
1.040000e+10 -3.486678e-01 8.476667e-01
1.050000e+10 -3.407976e-01 8.509191e-01
1.060000e+10 -3.329334e-01 8.540893e-01
1.070000e+10 -3.250759e-01 8.571781e-01
1.080000e+10 -3.172258e-01 8.601862e-01
1.090000e+10 -3.093841e-01 8.631143e-01
1.100000e+10 -3.015513e-01 8.659633e-01
1.110000e+10 -2.937283e-01 8.687338e-01
1.120000e+10 -2.859158e-01 8.714266e-01
1.130000e+10 -2.781143e-01 8.740424e-01
1.140000e+10 -2.703246e-01 8.765819e-01
1.150000e+10 -2.625473e-01 8.790460e-01
1.160000e+10 -2.547831e-01 8.814352e-01
1.170000e+10 -2.470324e-01 8.837504e-01
1.180000e+10 -2.392960e-01 8.859922e-01
1.190000e+10 -2.315744e-01 8.881614e-01
1.200000e+10 -2.238681e-01 8.902585e-01
1.210000e+10 -2.161777e-01 8.922844e-01
1.220000e+10 -2.085037e-01 8.942397e-01
1.230000e+10 -2.008466e-01 8.961250e-01
1.240000e+10 -1.932070e-01 8.979411e-01
1.250000e+10 -1.855853e-01 8.996887e-01
1.260000e+10 -1.779820e-01 9.013683e-01
1.270000e+10 -1.703976e-01 9.029806e-01
1.280000e+10 -1.628325e-01 9.045263e-01
1.290000e+10 -1.552872e-01 9.060061e-01
1.300000e+10 -1.477622e-01 9.074205e-01
1.310000e+10 -1.402578e-01 9.087702e-01
1.320000e+10 -1.327746e-01 9.100559e-01
1.330000e+10 -1.253129e-01 9.112782e-01
1.340000e+10 -1.178732e-01 9.124376e-01
1.350000e+10 -1.104558e-01 9.135349e-01
1.360000e+10 -1.030613e-01 9.145706e-01
1.370000e+10 -9.568986e-02 9.155454e-01
1.380000e+10 -8.834202e-02 9.164600e-01
1.390000e+10 -8.101812e-02 9.173148e-01
1.400000e+10 -7.371854e-02 9.181105e-01
1.410000e+10 -6.644366e-02 9.188478e-01
1.420000e+10 -5.919382e-02 9.195273e-01
1.430000e+10 -5.196939e-02 9.201496e-01
1.440000e+10 -4.477072e-02 9.207153e-01
1.450000e+10 -3.759813e-02 9.212251e-01
1.460000e+10 -3.045197e-02 9.216794e-01
1.470000e+10 -2.333255e-02 9.220791e-01
1.480000e+10 -1.624018e-02 9.224247e-01
1.490000e+10 -9.175183e-03 9.227168e-01
1.500000e+10 -2.137841e-03 9.229560e-01
1.510000e+10 4.871556e-03 9.231430e-01
1.520000e+10 1.185273e-02 9.232784e-01
1.530000e+10 1.880542e-02 9.233628e-01
1.540000e+10 2.572935e-02 9.233969e-01
1.550000e+10 3.262430e-02 9.233812e-01
1.560000e+10 3.949001e-02 9.233164e-01
1.570000e+10 4.632627e-02 9.232031e-01
1.580000e+10 5.313285e-02 9.230419e-01
1.590000e+10 5.990956e-02 9.228335e-01
1.600000e+10 6.665620e-02 9.225785e-01
1.610000e+10 7.337258e-02 9.222774e-01
1.620000e+10 8.005854e-02 9.219309e-01
1.630000e+10 8.671391e-02 9.215396e-01
1.640000e+10 9.333853e-02 9.211041e-01
1.650000e+10 9.993228e-02 9.206250e-01
1.660000e+10 1.064950e-01 9.201030e-01
1.670000e+10 1.130266e-01 9.195385e-01
1.680000e+10 1.195270e-01 9.189322e-01
1.690000e+10 1.259961e-01 9.182846e-01
1.700000e+10 1.324337e-01 9.175965e-01
1.710000e+10 1.388398e-01 9.168682e-01
1.720000e+10 1.452143e-01 9.161004e-01
1.730000e+10 1.515572e-01 9.152937e-01
1.740000e+10 1.578684e-01 9.144485e-01
1.750000e+10 1.641478e-01 9.135655e-01
1.760000e+10 1.703955e-01 9.126452e-01
1.770000e+10 1.766114e-01 9.116880e-01
1.780000e+10 1.827954e-01 9.106946e-01
1.790000e+10 1.889476e-01 9.096655e-01
1.800000e+10 1.950680e-01 9.086011e-01
1.810000e+10 2.011564e-01 9.075019e-01
1.820000e+10 2.072131e-01 9.063685e-01
1.830000e+10 2.132378e-01 9.052014e-01
1.840000e+10 2.192307e-01 9.040009e-01
1.850000e+10 2.251918e-01 9.027676e-01
1.860000e+10 2.311210e-01 9.015020e-01
1.870000e+10 2.370184e-01 9.002045e-01
1.880000e+10 2.428841e-01 8.988755e-01
1.890000e+10 2.487180e-01 8.975155e-01
1.900000e+10 2.545202e-01 8.961249e-01
1.910000e+10 2.602907e-01 8.947042e-01
1.920000e+10 2.660295e-01 8.932538e-01
1.930000e+10 2.717367e-01 8.917740e-01
1.940000e+10 2.774123e-01 8.902653e-01
1.950000e+10 2.830564e-01 8.887281e-01
1.960000e+10 2.886689e-01 8.871628e-01
1.970000e+10 2.942500e-01 8.855698e-01
1.980000e+10 2.997995e-01 8.839495e-01
1.990000e+10 3.053177e-01 8.823022e-01
2.000000e+10 3.108046e-01 8.806284e-01
2.010000e+10 3.162600e-01 8.789284e-01
2.020000e+10 3.216842e-01 8.772026e-01
2.030000e+10 3.270772e-01 8.754513e-01
2.040000e+10 3.324389e-01 8.736750e-01
2.050000e+10 3.377695e-01 8.718739e-01
2.060000e+10 3.430689e-01 8.700485e-01
2.070000e+10 3.483373e-01 8.681991e-01
2.080000e+10 3.535746e-01 8.663261e-01
2.090000e+10 3.587809e-01 8.644297e-01
2.100000e+10 3.639562e-01 8.625105e-01
2.110000e+10 3.691007e-01 8.605686e-01
2.120000e+10 3.742143e-01 8.586045e-01
2.130000e+10 3.792971e-01 8.566185e-01
2.140000e+10 3.843491e-01 8.546110e-01
2.150000e+10 3.893705e-01 8.525822e-01
2.160000e+10 3.943612e-01 8.505326e-01
2.170000e+10 3.993213e-01 8.484625e-01
2.180000e+10 4.042509e-01 8.463722e-01
2.190000e+10 4.091500e-01 8.442621e-01
2.200000e+10 4.140187e-01 8.421324e-01
2.210000e+10 4.188571e-01 8.399836e-01
2.220000e+10 4.236653e-01 8.378159e-01
2.230000e+10 4.284433e-01 8.356297e-01
2.240000e+10 4.331912e-01 8.334253e-01
2.250000e+10 4.379091e-01 8.312031e-01
2.260000e+10 4.425970e-01 8.289633e-01
2.270000e+10 4.472551e-01 8.267063e-01
2.280000e+10 4.518835e-01 8.244325e-01
2.290000e+10 4.564822e-01 8.221420e-01
2.300000e+10 4.610514e-01 8.198353e-01
2.310000e+10 4.655912e-01 8.175125e-01
2.320000e+10 4.701016e-01 8.151742e-01
2.330000e+10 4.745828e-01 8.128204e-01
2.340000e+10 4.790349e-01 8.104516e-01
2.350000e+10 4.834581e-01 8.080681e-01
2.360000e+10 4.878523e-01 8.056700e-01
2.370000e+10 4.922179e-01 8.032577e-01
2.380000e+10 4.965548e-01 8.008315e-01
2.390000e+10 5.008632e-01 7.983917e-01
2.400000e+10 5.051433e-01 7.959384e-01
2.410000e+10 5.093951e-01 7.934721e-01
2.420000e+10 5.136189e-01 7.909928e-01
2.430000e+10 5.178148e-01 7.885010e-01
2.440000e+10 5.219828e-01 7.859967e-01
2.450000e+10 5.261232e-01 7.834804e-01
2.460000e+10 5.302361e-01 7.809521e-01
2.470000e+10 5.343215e-01 7.784122e-01
2.480000e+10 5.383798e-01 7.758608e-01
2.490000e+10 5.424109e-01 7.732983e-01
2.500000e+10 5.464151e-01 7.707247e-01
2.510000e+10 5.503924e-01 7.681403e-01
2.520000e+10 5.543431e-01 7.655453e-01
2.530000e+10 5.582673e-01 7.629399e-01
2.540000e+10 5.621650e-01 7.603244e-01
2.550000e+10 5.660365e-01 7.576988e-01
2.560000e+10 5.698819e-01 7.550634e-01
2.570000e+10 5.737012e-01 7.524183e-01
2.580000e+10 5.774947e-01 7.497638e-01
2.590000e+10 5.812625e-01 7.471000e-01
2.600000e+10 5.850046e-01 7.444271e-01
2.610000e+10 5.887213e-01 7.417452e-01
2.620000e+10 5.924126e-01 7.390546e-01
2.630000e+10 5.960786e-01 7.363553e-01
2.640000e+10 5.997196e-01 7.336475e-01
2.650000e+10 6.033355e-01 7.309315e-01
2.660000e+10 6.069265e-01 7.282073e-01
2.670000e+10 6.104928e-01 7.254751e-01
2.680000e+10 6.140343e-01 7.227351e-01
2.690000e+10 6.175513e-01 7.199873e-01
2.700000e+10 6.210438e-01 7.172321e-01
2.710000e+10 6.245120e-01 7.144695e-01
2.720000e+10 6.279558e-01 7.116996e-01
2.730000e+10 6.313756e-01 7.089227e-01
2.740000e+10 6.347712e-01 7.061388e-01
2.750000e+10 6.381429e-01 7.033482e-01
2.760000e+10 6.414907e-01 7.005510e-01
2.770000e+10 6.448147e-01 6.977472e-01
2.780000e+10 6.481150e-01 6.949372e-01
2.790000e+10 6.513917e-01 6.921210e-01
2.800000e+10 6.546449e-01 6.892988e-01
2.810000e+10 6.578747e-01 6.864708e-01
2.820000e+10 6.610812e-01 6.836370e-01
2.830000e+10 6.642645e-01 6.807978e-01
2.840000e+10 6.674247e-01 6.779531e-01
2.850000e+10 6.705619e-01 6.751032e-01
2.860000e+10 6.736761e-01 6.722482e-01
2.870000e+10 6.767675e-01 6.693884e-01
2.880000e+10 6.798363e-01 6.665238e-01
2.890000e+10 6.828824e-01 6.636545e-01
2.900000e+10 6.859060e-01 6.607809e-01
2.910000e+10 6.889072e-01 6.579029e-01
2.920000e+10 6.918862e-01 6.550208e-01
2.930000e+10 6.948430e-01 6.521348e-01
2.940000e+10 6.977777e-01 6.492449e-01
2.950000e+10 7.006906e-01 6.463513e-01
2.960000e+10 7.035816e-01 6.434542e-01
2.970000e+10 7.064510e-01 6.405537e-01
2.980000e+10 7.092988e-01 6.376500e-01
2.990000e+10 7.121252e-01 6.347431e-01
3.000000e+10 7.149303e-01 6.318333e-01
3.010000e+10 7.177143e-01 6.289207e-01
3.020000e+10 7.204773e-01 6.260053e-01
3.030000e+10 7.232194e-01 6.230874e-01
3.040000e+10 7.259408e-01 6.201670e-01
3.050000e+10 7.286416e-01 6.172442e-01
3.060000e+10 7.313219e-01 6.143193e-01
3.070000e+10 7.339819e-01 6.113922e-01
3.080000e+10 7.366218e-01 6.084630e-01
3.090000e+10 7.392416e-01 6.055320e-01
3.100000e+10 7.418416e-01 6.025991e-01
3.110000e+10 7.444218e-01 5.996645e-01
3.120000e+10 7.469824e-01 5.967282e-01
3.130000e+10 7.495236e-01 5.937904e-01
3.140000e+10 7.520454e-01 5.908510e-01
3.150000e+10 7.545481e-01 5.879102e-01
3.160000e+10 7.570317e-01 5.849681e-01
3.170000e+10 7.594964e-01 5.820246e-01
3.180000e+10 7.619423e-01 5.790799e-01
3.190000e+10 7.643695e-01 5.761340e-01
3.200000e+10 7.667782e-01 5.731869e-01
3.210000e+10 7.691685e-01 5.702387e-01
3.220000e+10 7.715404e-01 5.672895e-01
3.230000e+10 7.738941e-01 5.643393e-01
3.240000e+10 7.762298e-01 5.613880e-01
3.250000e+10 7.785474e-01 5.584358e-01
3.260000e+10 7.808471e-01 5.554828e-01
3.270000e+10 7.831289e-01 5.525288e-01
3.280000e+10 7.853931e-01 5.495740e-01
3.290000e+10 7.876396e-01 5.466184e-01
3.300000e+10 7.898685e-01 5.436620e-01
3.310000e+10 7.920799e-01 5.407048e-01
3.320000e+10 7.942738e-01 5.377470e-01
3.330000e+10 7.964504e-01 5.347885e-01
3.340000e+10 7.986097e-01 5.318293e-01
3.350000e+10 8.007517e-01 5.288696e-01
3.360000e+10 8.028765e-01 5.259093e-01
3.370000e+10 8.049841e-01 5.229485e-01
3.380000e+10 8.070746e-01 5.199873e-01
3.390000e+10 8.091480e-01 5.170256e-01
3.400000e+10 8.112045e-01 5.140636e-01
3.410000e+10 8.132439e-01 5.111014e-01
3.420000e+10 8.152663e-01 5.081389e-01
3.430000e+10 8.172719e-01 5.051762e-01
3.440000e+10 8.192606e-01 5.022135e-01
3.450000e+10 8.212324e-01 4.992508e-01
3.460000e+10 8.231875e-01 4.962881e-01
3.470000e+10 8.251258e-01 4.933256e-01
3.480000e+10 8.270474e-01 4.903634e-01
3.490000e+10 8.289524e-01 4.874015e-01
3.500000e+10 8.308408e-01 4.844400e-01
3.510000e+10 8.327126e-01 4.814791e-01
3.520000e+10 8.345679e-01 4.785188e-01
3.530000e+10 8.364068e-01 4.755592e-01
3.540000e+10 8.382293e-01 4.726005e-01
3.550000e+10 8.400355e-01 4.696427e-01
3.560000e+10 8.418255e-01 4.666859e-01
3.570000e+10 8.435994e-01 4.637303e-01
3.580000e+10 8.453572e-01 4.607760e-01
3.590000e+10 8.470991e-01 4.578230e-01
3.600000e+10 8.488252e-01 4.548715e-01
3.610000e+10 8.505354e-01 4.519216e-01
3.620000e+10 8.522301e-01 4.489733e-01
3.630000e+10 8.539092e-01 4.460267e-01
3.640000e+10 8.555730e-01 4.430821e-01
3.650000e+10 8.572215e-01 4.401393e-01
3.660000e+10 8.588548e-01 4.371986e-01
3.670000e+10 8.604731e-01 4.342599e-01
3.680000e+10 8.620766e-01 4.313234e-01
3.690000e+10 8.636654e-01 4.283891e-01
3.700000e+10 8.652396e-01 4.254571e-01
3.710000e+10 8.667994e-01 4.225273e-01
3.720000e+10 8.683449e-01 4.196000e-01
3.730000e+10 8.698763e-01 4.166749e-01
3.740000e+10 8.713937e-01 4.137523e-01
3.750000e+10 8.728973e-01 4.108321e-01
3.760000e+10 8.743873e-01 4.079143e-01
3.770000e+10 8.758637e-01 4.049988e-01
3.780000e+10 8.773267e-01 4.020858e-01
3.790000e+10 8.787765e-01 3.991751e-01
3.800000e+10 8.802132e-01 3.962667e-01
3.810000e+10 8.816369e-01 3.933606e-01
3.820000e+10 8.830478e-01 3.904567e-01
3.830000e+10 8.844459e-01 3.875551e-01
3.840000e+10 8.858314e-01 3.846555e-01
3.850000e+10 8.872043e-01 3.817580e-01
3.860000e+10 8.885648e-01 3.788625e-01
3.870000e+10 8.899130e-01 3.759688e-01
3.880000e+10 8.912488e-01 3.730771e-01
3.890000e+10 8.925724e-01 3.701870e-01
3.900000e+10 8.938838e-01 3.672987e-01
3.910000e+10 8.951831e-01 3.644119e-01
3.920000e+10 8.964702e-01 3.615266e-01
3.930000e+10 8.977452e-01 3.586428e-01
3.940000e+10 8.990082e-01 3.557604e-01
3.950000e+10 9.002590e-01 3.528792e-01
3.960000e+10 9.014976e-01 3.499993e-01
3.970000e+10 9.027241e-01 3.471206e-01
3.980000e+10 9.039385e-01 3.442430e-01
3.990000e+10 9.051406e-01 3.413666e-01
4.000000e+10 9.063304e-01 3.384912e-01
